*SPEF "1481-1998"
*DESIGN "full_adder"
*DATE "Sat Apr  4 07:25:26 2026"
*VENDOR "Synopsys, Inc."
*PROGRAM "icc2 /home/synopsys_install/icc2/W-2024.09/linux64/nwtn/bin/icc2_exec"
*VERSION "W-2024.09 Aug 25, 2024"
*DESIGN_FLOW "ICC2 SPEF DR"
*DIVIDER /
*DELIMITER :
*BUS_DELIMITER [ ]
*T_UNIT 1 NS
*C_UNIT 1 FF
*R_UNIT 1 OHM
*L_UNIT 1 HENRY

// XY_UNIT 1 UM
// PARASITIC_TECH p1 at 125.000 degree

*NAME_MAP
*1 A[3]
*2 A[2]
*3 A[1]
*4 A[0]
*5 B[3]
*6 B[2]
*7 B[1]
*8 B[0]
*9 C_in
*10 C_out
*11 Clock
*12 SUM[3]
*13 SUM[2]
*14 SUM[1]
*15 SUM[0]
*16 VDD
*17 VSS
*18 reg1_reg[3]
*19 reg1_reg[2]
*20 reg1_reg[1]
*21 reg1_reg[0]
*22 reg2_reg[3]
*23 reg2_reg[2]
*24 reg2_reg[1]
*25 reg2_reg[0]
*26 c_in_reg
*27 SUM_reg[3]
*28 SUM_reg[2]
*29 SUM_reg[1]
*30 SUM_reg[0]
*31 C_out_reg
*32 intadd_0/U5
*33 intadd_0/U4
*34 intadd_0/U3
*35 intadd_0/U2
*36 copt_h_inst_908
*37 copt_h_inst_909
*38 copt_h_inst_911
*39 copt_h_inst_913
*40 copt_h_inst_914
*41 c_in
*42 intadd_0/n4
*43 intadd_0/n3
*44 intadd_0/n2
*45 intadd_0/n1
*46 reg1[3]
*47 reg1[2]
*48 reg1[1]
*49 reg1[0]
*50 reg2[3]
*51 reg2[2]
*52 reg2[1]
*53 reg2[0]
*54 sum_i[3]
*55 sum_i[2]
*56 sum_i[1]
*57 sum_i[0]
*58 copt_net_0
*59 copt_net_1
*60 copt_net_3
*61 copt_net_5
*62 copt_net_6

*PORTS

*1 I *C 6.648 0.143
*2 I *C 0.143 12.120
*3 I *C 0.143 16.376
*4 I *C 0.143 4.216
*5 I *C 0.143 7.256
*6 I *C 0.143 14.248
*7 I *C 2.392 0.143
*8 I *C 0.143 9.688
*9 I *C 4.520 0.143
*10 O *C 19.385 9.080
*11 I *C 8.472 19.233
*12 O *C 19.385 11.816
*13 O *C 19.385 16.984
*14 O *C 19.385 5.432
*15 O *C 19.385 14.856
*16 I *C 9.764 9.688
*17 I *C 9.764 9.688

*D_NET *1 0.5169054 //LENGTH 6.741 LUMPCC 0 DR

*CONN
*P *1 I *L 0 *C 6.648 0.258
*I *18:D I *L 0.558146 *C 7.256 5.280
*N *1:2 *C 7.074 4.824
*N *1:3 *C 7.256 4.642
*N *1:4 *C 7.074 4.824
*N *1:5 *C 7.256 5.267
*N *1:6 *C 7.256 4.838
*N *1:7 *C 7.244 4.824
*N *1:8 *C 7.256 4.812
*N *1:9 *C 7.244 4.824
*N *1:10 *C 7.256 4.811
*N *1:11 *C 7.256 3.014
*N *1:12 *C 7.243 3.000
*N *1:13 *C 6.662 3.000
*N *1:14 *C 6.648 2.986

*CAP
0 *1 0.1131413
1 *18:D 0.001
2 *1:2 0.009705673
3 *1:3 0.009907131
4 *1:4 0.009760194
5 *1:5 0.01882488
6 *1:6 0.02025756
7 *1:7 0.005016305
8 *1:8 0.005164314
9 *1:9 0.004963885
10 *1:10 0.07364293
11 *1:11 0.07364341
12 *1:12 0.03055288
13 *1:13 0.03055332
14 *1:14 0.1107716

*RES
0 *1 *1:14 4.872322
1 *1:5 *18:D 1
2 *1:6 *1:5 0.7660714
3 *1:7 *1:6 0.5
4 *1:7 *1:4 0.2825
5 *1:8 *1:7 0.5
6 *1:8 *1:3 0.2825
7 *1:9 *1:8 0.5
8 *1:9 *1:2 0.2825
9 *1:10 *1:9 0.5
10 *1:11 *1:10 3.208929
11 *1:12 *1:11 0.5
12 *1:13 *1:12 1.0375
13 *1:14 *1:13 0.5

*END

*D_NET *2 0.5104079 //LENGTH 7.163 LUMPCC 0 DR

*CONN
*P *2 I *L 0 *C 0.258 12.120
*I *19:D I *L 0.558146 *C 4.064 15.312
*N *2:2 *C 4.064 15.299
*N *2:3 *C 4.064 12.133
*N *2:4 *C 4.051 12.120

*CAP
0 *2 0.1285044
1 *19:D 0.001
2 *2:2 0.1266693
3 *2:3 0.128102
4 *2:4 0.1261322

*RES
0 *2 *2:4 6.772322
1 *2:2 *19:D 1
2 *2:3 *2:2 5.651786
3 *2:4 *2:3 0.5

*END

*D_NET *3 0.7514487 //LENGTH 10.669 LUMPCC 0 DR

*CONN
*P *3 I *L 0 *C 0.261 16.376
*I *20:D I *L 0.558146 *C 8.624 15.312
*N *3:2 *C 8.624 15.325
*N *3:3 *C 8.624 15.768
*N *3:4 *C 8.776 15.768
*N *3:5 *C 8.776 16.666
*N *3:6 *C 8.763 16.680
*N *3:7 *C 0.264 16.680

*CAP
0 *3 0.01112093
1 *20:D 0.001
2 *3:2 0.01886253
3 *3:3 0.030957
4 *3:4 0.05435586
5 *3:5 0.04369407
6 *3:6 0.2889826
7 *3:7 0.3024757

*RES
0 *3 *3:7 0.5428572
1 *3:2 *20:D 1
2 *3:5 *3:4 1.604464
3 *3:6 *3:5 0.5
4 *3:3 *3:2 0.7901787
5 *3:4 *3:3 0.2714286
6 *3:7 *3:6 15.17589

*END

*D_NET *4 0.4879169 //LENGTH 6.775 LUMPCC 0 DR

*CONN
*P *4 I *L 0 *C 0.258 4.216
*I *21:D I *L 0.558146 *C 3.456 7.408
*N *4:2 *C 3.456 7.395
*N *4:3 *C 3.456 6.662
*N *4:4 *C 3.443 6.648
*N *4:5 *C 2.710 6.648
*N *4:6 *C 2.696 6.635
*N *4:7 *C 2.696 4.229
*N *4:8 *C 2.683 4.216

*CAP
0 *4 0.07833891
1 *21:D 0.001
2 *4:2 0.03473262
3 *4:3 0.0361653
4 *4:4 0.03053812
5 *4:5 0.03053812
6 *4:6 0.1003186
7 *4:7 0.1003186
8 *4:8 0.07596669

*RES
0 *4 *4:8 4.329464
1 *4:2 *21:D 1
2 *4:3 *4:2 1.308929
3 *4:4 *4:3 0.5
4 *4:6 *4:5 0.5
5 *4:5 *4:4 1.308929
6 *4:7 *4:6 4.294643
7 *4:8 *4:7 0.5

*END

*D_NET *5 0.4908849 //LENGTH 6.775 LUMPCC 0 DR

*CONN
*P *5 I *L 0 *C 0.258 7.256
*I *22:D I *L 0.558146 *C 3.456 4.064
*N *5:2 *C 3.456 4.078
*N *5:3 *C 3.456 4.811
*N *5:4 *C 3.443 4.824
*N *5:5 *C 3.014 4.824
*N *5:6 *C 3.000 4.838
*N *5:7 *C 3.000 7.243
*N *5:8 *C 2.986 7.256

*CAP
0 *5 0.09049468
1 *22:D 0.001
2 *5:2 0.03316154
3 *5:3 0.03459422
4 *5:4 0.01828269
5 *5:5 0.01828269
6 *5:6 0.1034733
7 *5:7 0.1034733
8 *5:8 0.08812247

*RES
0 *5 *5:8 4.872321
1 *5:2 *22:D 1
2 *5:3 *5:2 1.308929
3 *5:4 *5:3 0.5
4 *5:6 *5:5 0.5
5 *5:5 *5:4 0.7660714
6 *5:7 *5:6 4.294643
7 *5:8 *5:7 0.5

*END

*D_NET *6 0.6384415 //LENGTH 9.443 LUMPCC 0 DR

*CONN
*P *6 I *L 0 *C 0.258 14.248
*I *23:D I *L 0.558146 *C 7.256 11.968
*N *6:2 *C 7.256 11.982
*N *6:3 *C 7.256 14.235
*N *6:4 *C 7.243 14.248

*CAP
0 *6 0.2286282
1 *23:D 0.001
2 *6:2 0.09056228
3 *6:3 0.09199496
4 *6:4 0.226256

*RES
0 *6 *6:4 12.47232
1 *6:2 *23:D 1
2 *6:3 *6:2 4.023215
3 *6:4 *6:3 0.5

*END

*D_NET *7 0.6084709 //LENGTH 9.710 LUMPCC 0 DR

*CONN
*P *7 I *L 0 *C 2.392 0.258
*I *24:D I *L 0.558146 *C 3.456 8.624
*N *7:2 *C 3.456 8.612
*N *7:3 *C 3.456 8.472
*N *7:4 *C 3.443 8.472
*N *7:5 *C 2.405 8.472
*N *7:6 *C 2.392 8.459

*CAP
0 *7 0.2593882
1 *24:D 0.001
2 *7:2 0.007658461
3 *7:3 0.00909114
4 *7:4 0.03715801
5 *7:5 0.03715856
6 *7:6 0.2570165

*RES
0 *7 *7:6 14.64375
1 *7:2 *24:D 1
2 *7:3 *7:2 0.2325
3 *7:4 *7:3 0.5
4 *7:5 *7:4 1.851786
5 *7:6 *7:5 0.5

*END

*D_NET *8 0.3910807 //LENGTH 5.603 LUMPCC 0 DR

*CONN
*P *8 I *L 0 *C 0.258 9.688
*I *25:D I *L 0.558146 *C 3.304 11.968
*N *8:2 *C 3.304 11.955
*N *8:3 *C 3.304 10.005
*N *8:4 *C 3.291 9.992
*N *8:5 *C 0.872 9.992
*N *8:6 *C 0.872 9.688

*CAP
0 *8 0.02313606
1 *25:D 0.001
2 *8:2 0.08093435
3 *8:3 0.08236703
4 *8:4 0.07864775
5 *8:5 0.09143973
6 *8:6 0.03355582

*RES
0 *8 *8:6 1.096429
1 *8:2 *25:D 1
2 *8:3 *8:2 3.480357
3 *8:4 *8:3 0.5
4 *8:6 *8:5 0.5428572
5 *8:5 *8:4 4.31875

*END

*D_NET *9 0.7640473 //LENGTH 11.073 LUMPCC 0 DR

*CONN
*P *9 I *L 0 *C 4.520 0.258
*I *26:D I *L 0.558146 *C 8.168 7.408
*N *9:2 *C 8.168 7.395
*N *9:3 *C 8.168 6.966
*N *9:4 *C 8.155 6.952
*N *9:5 *C 4.534 6.952
*N *9:6 *C 4.520 6.939

*CAP
0 *9 0.2316065
1 *26:D 0.001
2 *9:2 0.02014312
3 *9:3 0.0215758
4 *9:4 0.1302433
5 *9:5 0.1302439
6 *9:6 0.2292348

*RES
0 *9 *9:6 11.92947
1 *9:2 *26:D 1
2 *9:3 *9:2 0.7660714
3 *9:4 *9:3 0.5
4 *9:5 *9:4 6.466072
5 *9:6 *9:5 0.5

*END

*D_NET *10 0.4485425 //LENGTH 6.775 LUMPCC 0 DR

*CONN
*I *31:Q O *L 0 *C 16.224 5.736
*P *10 O *L 0 *C 19.270 9.080
*N *10:2 *C 16.998 9.080
*N *10:3 *C 16.984 9.066
*N *10:4 *C 16.984 6.054
*N *10:5 *C 16.971 6.040
*N *10:6 *C 16.238 6.040
*N *10:7 *C 16.224 6.027
*N *10:8 *C 16.224 5.750

*CAP
0 *31:Q 0.001
1 *10 0.07322576
2 *10:2 0.07085355
3 *10:3 0.1104858
4 *10:4 0.1104858
5 *10:5 0.0275671
6 *10:6 0.0275671
7 *10:7 0.01439507
8 *10:8 0.01296239

*RES
0 *31:Q *10:8 1
1 *10:8 *10:7 0.4946429
2 *10:7 *10:6 0.5
3 *10:6 *10:5 1.308929
4 *10:4 *10:3 5.380358
5 *10:5 *10:4 0.5
6 *10:3 *10:2 0.5
7 *10:2 *10 4.058035

*END

*D_NET *11 3.98567 //LENGTH 55.236 LUMPCC 0 DR

*CONN
*P *11 I *L 0 *C 8.472 19.118
*I *19:CLK I *L 0.714381 *C 4.368 16.224
*I *20:CLK I *L 0.714381 *C 8.928 16.224
*I *28:CLK I *L 0.714381 *C 12.880 16.224
*I *30:CLK I *L 0.714381 *C 13.184 12.880
*I *27:CLK I *L 0.714381 *C 13.184 9.840
*I *23:CLK I *L 0.714381 *C 7.560 12.880
*I *24:CLK I *L 0.714381 *C 3.760 9.536
*I *21:CLK I *L 0.714381 *C 3.760 6.496
*I *22:CLK I *L 0.714381 *C 3.760 3.152
*I *25:CLK I *L 0.714381 *C 3.715 12.880
*I *26:CLK I *L 0.714381 *C 8.472 6.496
*I *18:CLK I *L 0.714381 *C 7.560 6.192
*I *29:CLK I *L 0.714381 *C 12.728 6.496
*I *31:CLK I *L 0.714381 *C 13.184 6.192
*N *11:15 *C 13.184 6.179
*N *11:16 *C 13.184 6.040
*N *11:17 *C 13.171 6.040
*N *11:18 *C 13.032 6.040
*N *11:19 *C 13.032 6.054
*N *11:20 *C 13.032 6.635
*N *11:21 *C 13.019 6.648
*N *11:22 *C 12.728 6.496
*N *11:23 *C 12.728 6.636
*N *11:24 *C 12.728 6.648
*N *11:25 *C 7.560 6.179
*N *11:26 *C 7.560 6.040
*N *11:27 *C 7.574 6.040
*N *11:28 *C 8.168 6.040
*N *11:29 *C 8.168 6.648
*N *11:30 *C 8.472 6.497
*N *11:31 *C 8.472 6.635
*N *11:32 *C 8.472 6.648
*N *11:33 *C 8.471 6.648
*N *11:34 *C 8.168 6.648
*N *11:35 *C 3.760 12.880
*N *11:36 *C 3.760 12.867
*N *11:37 *C 3.760 12.438
*N *11:38 *C 3.772 12.424
*N *11:39 *C 3.760 3.166
*N *11:40 *C 3.760 3.595
*N *11:41 *C 3.760 3.608
*N *11:42 *C 3.900 3.608
*N *11:43 *C 3.912 3.622
*N *11:44 *C 3.760 6.496
*N *11:45 *C 3.760 6.636
*N *11:46 *C 3.760 6.648
*N *11:47 *C 3.900 6.648
*N *11:48 *C 3.912 6.648
*N *11:49 *C 3.760 9.524
*N *11:50 *C 3.760 9.384
*N *11:51 *C 3.760 9.384
*N *11:52 *C 3.900 9.384
*N *11:53 *C 3.912 9.384
*N *11:54 *C 3.912 12.411
*N *11:55 *C 3.925 12.424
*N *11:56 *C 7.560 12.867
*N *11:57 *C 7.560 12.438
*N *11:58 *C 7.560 12.424
*N *11:59 *C 8.155 12.424
*N *11:60 *C 8.168 12.424
*N *11:61 *C 13.184 9.854
*N *11:62 *C 13.184 10.283
*N *11:63 *C 13.171 10.296
*N *11:64 *C 13.032 10.296
*N *11:65 *C 13.032 10.309
*N *11:66 *C 13.184 12.868
*N *11:67 *C 13.184 12.728
*N *11:68 *C 13.171 12.728
*N *11:69 *C 13.032 12.728
*N *11:70 *C 13.032 12.728
*N *11:71 *C 13.032 16.059
*N *11:72 *C 13.020 16.072
*N *11:73 *C 12.880 16.212
*N *11:74 *C 12.880 16.072
*N *11:75 *C 12.893 16.072
*N *11:76 *C 8.928 16.212
*N *11:77 *C 8.928 16.072
*N *11:78 *C 8.928 16.072
*N *11:79 *C 4.368 16.212
*N *11:80 *C 4.368 16.072
*N *11:81 *C 4.381 16.072
*N *11:82 *C 8.168 16.072
*N *11:83 *C 8.168 16.072
*N *11:84 *C 8.168 18.200
*N *11:85 *C 8.472 18.200

*CAP
0 *11 0.03263176
1 *19:CLK 0.001
2 *20:CLK 0.001
3 *28:CLK 0.001
4 *30:CLK 0.001
5 *27:CLK 0.001
6 *23:CLK 0.001
7 *24:CLK 0.001
8 *21:CLK 0.001
9 *22:CLK 0.001
10 *25:CLK 0.01143389
11 *26:CLK 0.001
12 *18:CLK 0.001
13 *29:CLK 0.001
14 *31:CLK 0.001
15 *11:15 0.007972967
16 *11:16 0.009405645
17 *11:17 0.007929293
18 *11:18 0.007929839
19 *11:19 0.02337226
20 *11:20 0.02337226
21 *11:21 0.01094329
22 *11:22 0.01421434
23 *11:23 0.01564702
24 *11:24 0.1668174
25 *11:25 0.007196558
26 *11:26 0.008629236
27 *11:27 0.02264266
28 *11:28 0.04881766
29 *11:29 0.03722057
30 *11:30 0.006544725
31 *11:31 0.007977404
32 *11:32 0.1645485
33 *11:33 0.01178366
34 *11:34 0.2221246
35 *11:35 0.009358496
36 *11:36 0.02343901
37 *11:37 0.02314219
38 *11:38 0.008440454
39 *11:39 0.02022399
40 *11:40 0.02165667
41 *11:41 0.008254814
42 *11:42 0.00825536
43 *11:43 0.1158775
44 *11:44 0.008439993
45 *11:45 0.009872672
46 *11:46 0.008914874
47 *11:47 0.008915421
48 *11:48 0.2178333
49 *11:49 0.008162729
50 *11:50 0.009595407
51 *11:51 0.008488099
52 *11:52 0.008488646
53 *11:53 0.2143492
54 *11:54 0.1123934
55 *11:55 0.1481755
56 *11:56 0.02147642
57 *11:57 0.0229091
58 *11:58 0.1612703
59 *11:59 0.02153637
60 *11:60 0.3411364
61 *11:61 0.02114555
62 *11:62 0.02257823
63 *11:63 0.008046436
64 *11:64 0.008046983
65 *11:65 0.08464641
66 *11:66 0.008358031
67 *11:67 0.009790708
68 *11:68 0.007906978
69 *11:69 0.007907525
70 *11:70 0.2087451
71 *11:71 0.121727
72 *11:72 0.00746511
73 *11:73 0.006827922
74 *11:74 0.0082606
75 *11:75 0.1426785
76 *11:76 0.009678285
77 *11:77 0.01111096
78 *11:78 0.1631442
79 *11:79 0.007046824
80 *11:80 0.008479503
81 *11:81 0.1379495
82 *11:82 0.1682525
83 *11:83 0.2157931
84 *11:84 0.09365777
85 *11:85 0.04366358

*RES
0 *11 *11:85 1.639286
1 *11:69 *11:68 0.2325
2 *11:70 *11:69 0.5
3 *11:70 *11:65 4.31875
4 *11:67 *11:66 0.2325
5 *11:68 *11:67 0.5
6 *11:66 *30:CLK 1
7 *11:64 *11:63 0.2325
8 *11:65 *11:64 0.5
9 *11:62 *11:61 0.7660714
10 *11:63 *11:62 0.5
11 *11:61 *27:CLK 1
12 *11:72 *11:71 0.5
13 *11:71 *11:70 5.947322
14 *11:74 *11:73 0.2325
15 *11:75 *11:74 0.5
16 *11:75 *11:72 0.2116667
17 *11:73 *28:CLK 1
18 *11:21 *11:20 0.5
19 *11:20 *11:19 1.0375
20 *11:18 *11:17 0.2325
21 *11:19 *11:18 0.5
22 *11:16 *11:15 0.2325
23 *11:17 *11:16 0.5
24 *11:15 *31:CLK 1
25 *11:23 *11:22 0.2325
26 *11:24 *11:23 0.5
27 *11:24 *11:21 0.5187501
28 *11:22 *29:CLK 1
29 *11:77 *11:76 0.2325
30 *11:78 *11:77 0.5
31 *11:78 *11:75 7.079465
32 *11:76 *20:CLK 1
33 *11:31 *11:30 0.2455357
34 *11:32 *11:31 0.5
35 *11:32 *11:29 0.5428572
36 *11:32 *11:24 7.6
37 *11:30 *26:CLK 1
38 *11:33 *11:32 0.5
39 *11:82 *11:81 6.761607
40 *11:82 *11:78 1.357143
41 *11:83 *11:82 0.5
42 *11:83 *11:60 6.514286
43 *11:59 *11:58 1.061607
44 *11:60 *11:59 0.5
45 *11:60 *11:34 10.31429
46 *11:57 *11:56 0.7660715
47 *11:58 *11:57 0.5
48 *11:58 *11:55 6.49018
49 *11:56 *23:CLK 1
50 *11:26 *11:25 0.2325
51 *11:27 *11:26 0.5
52 *11:25 *18:CLK 1
53 *11:80 *11:79 0.2325
54 *11:81 *11:80 0.5
55 *11:79 *19:CLK 1
56 *11:55 *11:54 0.5
57 *11:55 *11:38 0.255
58 *11:54 *11:53 5.404465
59 *11:52 *11:51 0.2325
60 *11:53 *11:52 0.5
61 *11:53 *11:48 4.885715
62 *11:50 *11:49 0.2325
63 *11:51 *11:50 0.5
64 *11:49 *24:CLK 1
65 *11:47 *11:46 0.2325
66 *11:48 *11:47 0.5
67 *11:48 *11:43 5.404465
68 *11:45 *11:44 0.2325
69 *11:46 *11:45 0.5
70 *11:44 *21:CLK 1
71 *11:42 *11:41 0.2325
72 *11:43 *11:42 0.5
73 *11:40 *11:39 0.7660715
74 *11:41 *11:40 0.5
75 *11:39 *22:CLK 1
76 *11:37 *11:36 0.7660715
77 *11:38 *11:37 0.5
78 *11:35 *25:CLK 0.09166668
79 *11:36 *11:35 1
80 *11:28 *11:27 1.061607
81 *11:29 *11:28 1.085714
82 *11:34 *11:33 0.5410715
83 *11:84 *11:83 3.8
84 *11:85 *11:84 0.5428572

*END

*D_NET *12 0.3139278 //LENGTH 4.762 LUMPCC 0 DR

*CONN
*I *27:Q O *L 0 *C 16.224 10.296
*P *12 O *L 0 *C 19.270 11.816
*N *12:2 *C 16.390 11.816
*N *12:3 *C 16.376 11.803
*N *12:4 *C 16.376 10.296
*N *12:5 *C 16.225 10.296

*CAP
0 *27:Q 0.001
1 *12 0.09230303
2 *12:2 0.08993082
3 *12:3 0.05853183
4 *12:4 0.06843556
5 *12:5 0.003726614

*RES
0 *27:Q *12:5 1
1 *12:5 *12:4 0.2696429
2 *12:3 *12:2 0.5
3 *12:2 *12 5.14375
4 *12:4 *12:3 2.690179

*END

*D_NET *13 0.2961767 //LENGTH 4.731 LUMPCC 0 DR

*CONN
*I *28:Q O *L 0 *C 15.920 15.768
*P *13 O *L 0 *C 19.270 16.984
*N *13:2 *C 15.934 16.984
*N *13:3 *C 15.920 16.971
*N *13:4 *C 15.920 15.782

*CAP
0 *28:Q 0.001
1 *13 0.1026583
2 *13:2 0.1002861
3 *13:3 0.04683248
4 *13:4 0.0453998

*RES
0 *28:Q *13:4 1
1 *13:4 *13:3 2.123214
2 *13:3 *13:2 0.5
3 *13:2 *13 5.958036

*END

*D_NET *14 0.3493381 //LENGTH 5.187 LUMPCC 0 DR

*CONN
*I *29:Q O *L 0 *C 15.768 6.952
*P *14 O *L 0 *C 19.270 5.432
*N *14:2 *C 15.782 5.432
*N *14:3 *C 15.768 5.446
*N *14:4 *C 15.768 6.939

*CAP
0 *29:Q 0.001
1 *14 0.1140802
2 *14:2 0.1117079
3 *14:3 0.06199136
4 *14:4 0.06055868

*RES
0 *29:Q *14:4 1
1 *14:4 *14:3 2.666071
2 *14:3 *14:2 0.5
3 *14:2 *14 6.229465

*END

*D_NET *15 0.4138335 //LENGTH 5.674 LUMPCC 0 DR

*CONN
*I *30:Q O *L 0 *C 16.224 12.424
*P *15 O *L 0 *C 19.270 14.856
*N *15:2 *C 16.390 14.856
*N *15:3 *C 16.376 14.843
*N *15:4 *C 16.376 12.424
*N *15:5 *C 16.225 12.424

*CAP
0 *30:Q 0.001
1 *15 0.1000449
2 *15:2 0.09767266
3 *15:3 0.1003692
4 *15:4 0.1106465
5 *15:5 0.00410026

*RES
0 *30:Q *15:5 1
1 *15:5 *15:4 0.2696429
2 *15:3 *15:2 0.5
3 *15:2 *15 5.14375
4 *15:4 *15:3 4.31875

*END

*D_NET *41 0.8429877 //LENGTH 10.362 LUMPCC 0 DR

*CONN
*I *26:Q O *L 0 *C 11.512 6.952
*I *32:A I *L 1.976759 *C 4.672 10.144
*N *41:2 *C 4.672 10.130
*N *41:3 *C 4.672 8.181
*N *41:4 *C 4.686 8.168
*N *41:5 *C 11.498 8.168
*N *41:6 *C 11.512 8.155
*N *41:7 *C 11.512 6.966

*CAP
0 *26:Q 0.001
1 *32:A 0.001
2 *41:2 0.08775987
3 *41:3 0.08919255
4 *41:4 0.2819542
5 *41:5 0.2819542
6 *41:6 0.05077975
7 *41:7 0.04934707

*RES
0 *26:Q *41:7 1
1 *41:2 *32:A 1
2 *41:3 *41:2 3.480357
3 *41:4 *41:3 0.5
4 *41:6 *41:5 0.5
5 *41:5 *41:4 12.16607
6 *41:7 *41:6 2.123214

*END

*D_NET *42 0.2448063 //LENGTH 3.218 LUMPCC 0 DR

*CONN
*I *32:CO O *L 0 *C 6.496 10.448
*I *33:B I *L 1.946637 *C 7.560 8.624
*N *42:2 *C 7.560 8.638
*N *42:3 *C 7.560 9.675
*N *42:4 *C 7.546 9.688
*N *42:5 *C 6.510 9.688
*N *42:6 *C 6.496 9.702
*N *42:7 *C 6.496 10.434

*CAP
0 *32:CO 0.001
1 *33:B 0.001
2 *42:2 0.04781489
3 *42:3 0.04924757
4 *42:4 0.04016637
5 *42:5 0.04016637
6 *42:6 0.0334219
7 *42:7 0.03198922

*RES
0 *32:CO *42:7 1
1 *42:2 *33:B 1
2 *42:3 *42:2 1.851786
3 *42:4 *42:3 0.5
4 *42:6 *42:5 0.5
5 *42:5 *42:4 1.851786
6 *42:7 *42:6 1.308929

*END

*D_NET *43 0.5576582 //LENGTH 5.871 LUMPCC 0 DR

*CONN
*I *33:CO O *L 0 *C 9.870 8.928
*I *34:B I *L 1.946637 *C 10.296 14.096
*N *43:2 *C 10.296 14.083
*N *43:3 *C 10.296 13.944
*N *43:4 *C 10.144 13.944
*N *43:5 *C 10.144 8.941
*N *43:6 *C 10.129 8.928

*CAP
0 *33:CO 0.02501459
1 *34:B 0.001
2 *43:2 0.01091815
3 *43:3 0.02319587
4 *43:4 0.2425693
5 *43:5 0.2320211
6 *43:6 0.0229392

*RES
0 *33:CO *43:6 0.518
1 *43:2 *34:B 1
2 *43:6 *43:5 1
3 *43:5 *43:4 8.933037
4 *43:4 *43:3 0.2714286
5 *43:3 *43:2 0.2473215

*END

*D_NET *44 1.097008 //LENGTH 12.034 LUMPCC 0 DR

*CONN
*I *34:CO O *L 0 *C 12.424 13.792
*I *35:B I *L 1.946637 *C 10.448 4.064
*N *44:2 *C 10.448 4.078
*N *44:3 *C 10.448 13.019
*N *44:4 *C 10.462 13.032
*N *44:5 *C 12.411 13.032
*N *44:6 *C 12.424 13.046
*N *44:7 *C 12.424 13.779

*CAP
0 *34:CO 0.001
1 *35:B 0.001
2 *44:2 0.4334143
3 *44:3 0.4348469
4 *44:4 0.07206982
5 *44:5 0.07206982
6 *44:6 0.04199001
7 *44:7 0.04061705

*RES
0 *34:CO *44:7 1
1 *44:2 *35:B 1
2 *44:3 *44:2 15.96607
3 *44:4 *44:3 0.5
4 *44:6 *44:5 0.5
5 *44:5 *44:4 3.480358
6 *44:7 *44:6 1.308929

*END

*D_NET *45 0.09269807 //LENGTH 0.750 LUMPCC 0 DR

*CONN
*I *35:CO O *L 0 *C 12.758 3.760
*I *40:A I *L 0.434891 *C 13.336 3.882
*N *45:2 *C 13.336 3.760

*CAP
0 *35:CO 0.03530265
1 *40:A 0.01104638
2 *45:2 0.04634904

*RES
0 *35:CO *45:2 1.156
1 *45:2 *40:A 0.244

*END

*D_NET *46 0.3718624 //LENGTH 3.085 LUMPCC 0 DR

*CONN
*I *18:Q O *L 0 *C 10.600 5.736
*I *35:A I *L 1.976759 *C 10.874 3.456
*N *46:2 *C 10.752 3.456
*N *46:3 *C 10.752 3.455
*N *46:4 *C 10.752 3.304
*N *46:5 *C 10.600 3.304
*N *46:6 *C 10.600 5.723

*CAP
0 *18:Q 0.001
1 *35:A 0.01073941
2 *46:2 0.01695447
3 *46:3 0.01023516
4 *46:4 0.02089392
5 *46:5 0.1622139
6 *46:6 0.1498256

*RES
0 *18:Q *46:6 1
1 *46:2 *35:A 0.244
2 *46:3 *46:2 1
3 *46:6 *46:5 4.31875
4 *46:5 *46:4 0.2714286
5 *46:4 *46:3 0.2696429

*END

*D_NET *47 0.4941759 //LENGTH 5.954 LUMPCC 0 DR

*CONN
*I *19:Q O *L 0 *C 7.408 15.768
*I *34:A I *L 1.976759 *C 10.752 13.488
*N *47:2 *C 10.752 13.502
*N *47:3 *C 10.752 14.539
*N *47:4 *C 10.739 14.552
*N *47:5 *C 7.421 14.552
*N *47:6 *C 7.408 14.566
*N *47:7 *C 7.408 15.755

*CAP
0 *19:Q 0.001
1 *34:A 0.001
2 *47:2 0.06049749
3 *47:3 0.06193016
4 *47:4 0.1360063
5 *47:5 0.1360063
6 *47:6 0.04958417
7 *47:7 0.04815149

*RES
0 *19:Q *47:7 1
1 *47:2 *34:A 1
2 *47:3 *47:2 1.851786
3 *47:4 *47:3 0.5
4 *47:6 *47:5 0.5
5 *47:5 *47:4 5.923214
6 *47:7 *47:6 2.123214

*END

*D_NET *48 0.8446931 //LENGTH 10.848 LUMPCC 0 DR

*CONN
*I *20:Q O *L 0 *C 11.968 15.768
*I *33:A I *L 1.976759 *C 8.041 9.232
*N *48:2 *C 8.155 9.232
*N *48:3 *C 8.168 9.245
*N *48:4 *C 8.168 13.627
*N *48:5 *C 8.181 13.640
*N *48:6 *C 11.955 13.640
*N *48:7 *C 11.968 13.654
*N *48:8 *C 11.968 15.755

*CAP
0 *20:Q 0.001
1 *33:A 0.01417428
2 *48:2 0.01209889
3 *48:3 0.1793982
4 *48:4 0.1791014
5 *48:5 0.140366
6 *48:6 0.140366
7 *48:7 0.08981047
8 *48:8 0.08837779

*RES
0 *20:Q *48:8 1
1 *48:2 *33:A 0.1908333
2 *48:3 *48:2 1
3 *48:4 *48:3 7.823215
4 *48:5 *48:4 0.5
5 *48:7 *48:6 0.5
6 *48:6 *48:5 6.7375
7 *48:8 *48:7 3.751786

*END

*D_NET *49 0.5294036 //LENGTH 6.714 LUMPCC 0 DR

*CONN
*I *21:Q O *L 0 *C 6.800 6.952
*I *32:B I *L 1.946637 *C 4.216 10.752
*N *49:2 *C 4.216 10.739
*N *49:3 *C 4.216 7.574
*N *49:4 *C 4.229 7.560
*N *49:5 *C 6.787 7.560
*N *49:6 *C 6.800 7.546
*N *49:7 *C 6.800 6.966

*CAP
0 *21:Q 0.001
1 *32:B 0.001
2 *49:2 0.1373073
3 *49:3 0.13874
4 *49:4 0.1009056
5 *49:5 0.1009056
6 *49:6 0.02548892
7 *49:7 0.02405625

*RES
0 *21:Q *49:7 1
1 *49:2 *32:B 1
2 *49:3 *49:2 5.651786
3 *49:4 *49:3 0.5
4 *49:6 *49:5 0.5
5 *49:5 *49:4 4.566072
6 *49:7 *49:6 1.0375

*END

*D_NET *50 0.3425426 //LENGTH 4.870 LUMPCC 0 DR

*CONN
*I *22:Q O *L 0 *C 6.800 3.608
*I *35:CI I *L 1.474751 *C 10.752 4.064
*N *50:2 *C 6.800 3.426
*N *50:3 *C 10.752 4.051
*N *50:4 *C 10.752 3.622
*N *50:5 *C 10.739 3.608
*N *50:6 *C 6.814 3.608
*N *50:7 *C 6.800 3.596

*CAP
0 *22:Q 0.001
1 *35:CI 0.001
2 *50:2 0.01165956
3 *50:3 0.02937499
4 *50:4 0.03080767
5 *50:5 0.131609
6 *50:6 0.131609
7 *50:7 0.005482449

*RES
0 *22:Q *50:7 1
1 *50:3 *35:CI 1
2 *50:4 *50:3 0.7660714
3 *50:5 *50:4 0.5
4 *50:7 *50:6 0.5
5 *50:7 *50:2 0.2825
6 *50:6 *50:5 7.008929

*END

*D_NET *51 0.2065191 //LENGTH 1.782 LUMPCC 0 DR

*CONN
*I *23:Q O *L 0 *C 10.600 12.424
*I *34:CI I *L 1.474751 *C 10.600 14.096
*N *51:2 *C 10.600 14.083
*N *51:3 *C 10.600 12.438

*CAP
0 *23:Q 0.001
1 *34:CI 0.001
2 *51:2 0.1022596
3 *51:3 0.1022596

*RES
0 *23:Q *51:3 1
1 *51:2 *34:CI 1
2 *51:3 *51:2 2.9375

*END

*D_NET *52 0.1478703 //LENGTH 1.982 LUMPCC 0 DR

*CONN
*I *24:Q O *L 0 *C 6.800 9.080
*I *33:CI I *L 1.474751 *C 7.864 8.624
*N *52:2 *C 6.800 8.898
*N *52:3 *C 7.864 8.638
*N *52:4 *C 7.864 9.066
*N *52:5 *C 7.851 9.080
*N *52:6 *C 6.814 9.080
*N *52:7 *C 6.800 9.068

*CAP
0 *24:Q 0.001
1 *33:CI 0.001
2 *52:2 0.01249156
3 *52:3 0.0225567
4 *52:4 0.02398937
5 *52:5 0.04025912
6 *52:6 0.04025912
7 *52:7 0.006314445

*RES
0 *24:Q *52:7 1
1 *52:3 *33:CI 1
2 *52:4 *52:3 0.7660715
3 *52:5 *52:4 0.5
4 *52:7 *52:6 0.5
5 *52:7 *52:2 0.2825
6 *52:6 *52:5 1.851786

*END

*D_NET *53 0.3231679 //LENGTH 4.130 LUMPCC 0 DR

*CONN
*I *25:Q O *L 0 *C 6.648 12.424
*I *32:CI I *L 1.474751 *C 4.520 10.752
*N *53:2 *C 4.520 10.766
*N *53:3 *C 4.520 11.803
*N *53:4 *C 4.534 11.816
*N *53:5 *C 6.635 11.816
*N *53:6 *C 6.648 11.830
*N *53:7 *C 6.648 12.411

*CAP
0 *25:Q 0.001
1 *32:CI 0.001
2 *53:2 0.0508909
3 *53:3 0.05232358
4 *53:4 0.08244482
5 *53:5 0.08244482
6 *53:6 0.02724823
7 *53:7 0.02581555

*RES
0 *25:Q *53:7 1
1 *53:2 *32:CI 1
2 *53:3 *53:2 1.851786
3 *53:4 *53:3 0.5
4 *53:6 *53:5 0.5
5 *53:5 *53:4 3.751786
6 *53:7 *53:6 1.0375

*END

*D_NET *54 0.5802661 //LENGTH 6.674 LUMPCC 0 DR

*CONN
*I *35:S O *L 0 *C 12.424 3.608
*I *39:A I *L 0.434891 *C 13.488 8.776
*N *54:2 *C 13.488 8.763
*N *54:3 *C 13.488 8.181
*N *54:4 *C 13.475 8.168
*N *54:5 *C 12.590 8.168
*N *54:6 *C 12.576 8.155
*N *54:7 *C 12.576 4.824
*N *54:8 *C 12.424 4.824
*N *54:9 *C 12.424 3.622

*CAP
0 *35:S 0.001
1 *39:A 0.001
2 *54:2 0.02542188
3 *54:3 0.02685456
4 *54:4 0.03204825
5 *54:5 0.03204825
6 *54:6 0.1681944
7 *54:7 0.1777917
8 *54:8 0.06346846
9 *54:9 0.05243853

*RES
0 *35:S *54:9 1
1 *54:2 *39:A 1
2 *54:3 *54:2 1.0375
3 *54:4 *54:3 0.5
4 *54:6 *54:5 0.5
5 *54:5 *54:4 1.580357
6 *54:9 *54:8 2.147322
7 *54:8 *54:7 0.2714286
8 *54:7 *54:6 5.947321

*END

*D_NET *55 0.1424638 //LENGTH 1.830 LUMPCC 0 DR

*CONN
*I *34:S O *L 0 *C 12.272 13.640
*I *36:A I *L 0.434891 *C 13.336 13.944
*N *55:2 *C 12.272 13.458
*N *55:3 *C 13.336 13.931
*N *55:4 *C 13.336 13.654
*N *55:5 *C 13.322 13.640
*N *55:6 *C 12.286 13.640
*N *55:7 *C 12.272 13.628

*CAP
0 *34:S 0.001
1 *36:A 0.001
2 *55:2 0.0166096
3 *55:3 0.01464602
4 *55:4 0.0160787
5 *55:5 0.04134852
6 *55:6 0.04134852
7 *55:7 0.01043249

*RES
0 *34:S *55:7 1
1 *55:3 *36:A 1
2 *55:4 *55:3 0.4946429
3 *55:5 *55:4 0.5
4 *55:7 *55:6 0.5
5 *55:7 *55:2 0.2825
6 *55:6 *55:5 1.851786

*END

*D_NET *56 0.1219639 //LENGTH 1.418 LUMPCC 0 DR

*CONN
*I *33:S O *L 0 *C 9.536 9.080
*I *38:A I *L 0.434891 *C 10.133 8.776
*N *56:2 *C 9.992 8.594
*N *56:3 *C 10.005 8.776
*N *56:4 *C 9.992 8.764
*N *56:5 *C 9.979 8.776
*N *56:6 *C 9.550 8.776
*N *56:7 *C 9.536 8.790
*N *56:8 *C 9.536 9.066

*CAP
0 *33:S 0.001
1 *38:A 0.01551884
2 *56:2 0.01552041
3 *56:3 0.01344344
4 *56:4 0.01107279
5 *56:5 0.01848242
6 *56:6 0.01848242
7 *56:7 0.01493816
8 *56:8 0.01350548

*RES
0 *33:S *56:8 1
1 *56:3 *38:A 0.2133333
2 *56:4 *56:3 1
3 *56:4 *56:2 0.2825
4 *56:5 *56:4 0.5
5 *56:7 *56:6 0.5
6 *56:6 *56:5 0.7660715
7 *56:8 *56:7 0.4946429

*END

*D_NET *57 0.1246088 //LENGTH 1.830 LUMPCC 0 DR

*CONN
*I *32:S O *L 0 *C 6.192 10.296
*I *37:A I *L 0.434891 *C 7.256 10.600
*N *57:2 *C 6.192 10.114
*N *57:3 *C 7.256 10.587
*N *57:4 *C 7.256 10.309
*N *57:5 *C 7.243 10.296
*N *57:6 *C 6.206 10.296
*N *57:7 *C 6.192 10.284

*CAP
0 *32:S 0.001
1 *37:A 0.001
2 *57:2 0.01266944
3 *57:3 0.01313801
4 *57:4 0.01457069
5 *57:5 0.03786916
6 *57:6 0.03786916
7 *57:7 0.006492325

*RES
0 *32:S *57:7 1
1 *57:3 *37:A 1
2 *57:4 *57:3 0.4946429
3 *57:5 *57:4 0.5
4 *57:7 *57:6 0.5
5 *57:7 *57:2 0.2825
6 *57:6 *57:5 1.851786

*END

*D_NET *58 0.4456884 //LENGTH 5.984 LUMPCC 0 DR

*CONN
*I *36:Y O *L 0 *C 16.102 14.094
*I *28:D I *L 0.558146 *C 12.576 15.312
*N *58:2 *C 12.576 15.299
*N *58:3 *C 12.576 14.261
*N *58:4 *C 12.590 14.248
*N *58:5 *C 16.515 14.248
*N *58:6 *C 16.528 14.236
*N *58:7 *C 16.528 14.096
*N *58:8 *C 16.513 14.096

*CAP
0 *36:Y 0.02435188
1 *28:D 0.001
2 *58:2 0.04643428
3 *58:3 0.04786696
4 *58:4 0.1386401
5 *58:5 0.1386401
6 *58:6 0.01309094
7 *58:7 0.01338777
8 *58:8 0.02227648

*RES
0 *36:Y *58:8 0.8220001
1 *58:2 *28:D 1
2 *58:3 *58:2 1.851786
3 *58:4 *58:3 0.5
4 *58:6 *58:5 0.5
5 *58:5 *58:4 7.008929
6 *58:8 *58:7 1
7 *58:7 *58:6 0.2325

*END

*D_NET *59 0.3829702 //LENGTH 4.264 LUMPCC 0 DR

*CONN
*I *37:Y O *L 0 *C 10.022 10.750
*I *30:D I *L 0.558146 *C 12.850 11.968
*N *59:2 *C 11.983 11.968
*N *59:3 *C 11.968 11.955
*N *59:4 *C 11.968 10.766
*N *59:5 *C 11.953 10.752

*CAP
0 *37:Y 0.1012232
1 *30:D 0.0472432
2 *59:2 0.0451678
3 *59:3 0.04509406
4 *59:4 0.04509406
5 *59:5 0.09914783

*RES
0 *37:Y *59:5 3.862
1 *59:2 *30:D 1.734
2 *59:3 *59:2 1
3 *59:5 *59:4 1
4 *59:4 *59:3 2.123214

*END

*D_NET *60 0.1691026 //LENGTH 2.007 LUMPCC 0 DR

*CONN
*I *38:Y O *L 0 *C 12.880 8.624
*I *29:D I *L 0.558146 *C 12.424 7.408
*N *60:2 *C 12.424 7.408
*N *60:3 *C 12.424 7.548
*N *60:4 *C 12.438 7.560
*N *60:5 *C 12.867 7.560
*N *60:6 *C 12.880 7.574
*N *60:7 *C 12.880 8.611

*CAP
0 *38:Y 0.001
1 *29:D 0.001
2 *60:2 0.01245305
3 *60:3 0.01388573
4 *60:4 0.01773486
5 *60:5 0.01773486
6 *60:6 0.05336337
7 *60:7 0.05193069

*RES
0 *38:Y *60:7 1
1 *60:2 *29:D 1
2 *60:3 *60:2 0.2325
3 *60:4 *60:3 0.5
4 *60:6 *60:5 0.5
5 *60:5 *60:4 0.7660715
6 *60:7 *60:6 1.851786

*END

*D_NET *61 0.4769527 //LENGTH 6.468 LUMPCC 0 DR

*CONN
*I *39:Y O *L 0 *C 16.264 8.629
*I *27:D I *L 0.558146 *C 12.868 10.752
*N *61:2 *C 12.741 10.752
*N *61:3 *C 12.728 10.739
*N *61:4 *C 12.728 9.398
*N *61:5 *C 12.742 9.384
*N *61:6 *C 16.363 9.384
*N *61:7 *C 16.376 9.370
*N *61:8 *C 16.376 8.638
*N *61:9 *C 16.364 8.624

*CAP
0 *39:Y 0.01074587
1 *27:D 0.01390355
2 *61:2 0.01182815
3 *61:3 0.05772483
4 *61:4 0.05742801
5 *61:5 0.1278055
6 *61:6 0.1278055
7 *61:7 0.03037194
8 *61:8 0.03066877
9 *61:9 0.008670473

*RES
0 *39:Y *61:9 0.1658334
1 *61:2 *27:D 0.2116667
2 *61:3 *61:2 1
3 *61:4 *61:3 2.394643
4 *61:5 *61:4 0.5
5 *61:7 *61:6 0.5
6 *61:6 *61:5 6.466072
7 *61:9 *61:8 1
8 *61:8 *61:7 1.308929

*END

*D_NET *62 0.4288059 //LENGTH 5.722 LUMPCC 0 DR

*CONN
*I *40:Y O *L 0 *C 16.102 4.062
*I *31:D I *L 0.558146 *C 12.868 5.280
*N *62:2 *C 12.741 5.280
*N *62:3 *C 12.728 5.267
*N *62:4 *C 12.728 4.229
*N *62:5 *C 12.742 4.216
*N *62:6 *C 16.363 4.216
*N *62:7 *C 16.376 4.204
*N *62:8 *C 16.376 4.064
*N *62:9 *C 16.361 4.064

*CAP
0 *40:Y 0.01720839
1 *31:D 0.01439867
2 *62:2 0.01232327
3 *62:3 0.05741986
4 *62:4 0.05712305
5 *62:5 0.1203228
6 *62:6 0.1203228
7 *62:7 0.007128682
8 *62:8 0.007425502
9 *62:9 0.01513299

*RES
0 *40:Y *62:9 0.5180001
1 *62:2 *31:D 0.2116667
2 *62:3 *62:2 1
3 *62:4 *62:3 1.851786
4 *62:5 *62:4 0.5
5 *62:7 *62:6 0.5
6 *62:6 *62:5 6.466072
7 *62:9 *62:8 1
8 *62:8 *62:7 0.2325

*END

