*SPEF "1481-1998"
*DESIGN "updown_counter"
*DATE "Sun Apr  5 05:45:18 2026"
*VENDOR "Synopsys, Inc."
*PROGRAM "icc2 /home/synopsys_install/icc2/W-2024.09/linux64/nwtn/bin/icc2_exec"
*VERSION "W-2024.09 Aug 25, 2024"
*DESIGN_FLOW "ICC2 SPEF DR"
*DIVIDER /
*DELIMITER :
*BUS_DELIMITER [ ]
*T_UNIT 1 NS
*C_UNIT 1 FF
*R_UNIT 1 OHM
*L_UNIT 1 HENRY

// XY_UNIT 1 UM
// PARASITIC_TECH p1 at 125.000 degree

*NAME_MAP
*1 Clock
*2 rst
*3 dir
*4 count[3]
*5 count[2]
*6 count[1]
*7 count[0]
*8 VDD
*9 VSS
*10 count_reg[0]
*11 count_reg[1]
*12 count_reg[2]
*13 count_reg[3]
*14 U12
*15 U13
*16 U14
*17 U15
*18 U16
*19 U17
*20 U18
*21 copt_h_inst_690
*22 copt_h_inst_691
*23 copt_h_inst_693
*24 copt_h_inst_694
*25 N14
*26 N15
*27 N16
*28 n6
*29 n7
*30 n8
*31 n9
*32 n10
*33 n11
*34 n12
*35 copt_net_0
*36 copt_net_1
*37 copt_net_3
*38 copt_net_4

*PORTS

*1 I *C 9.208 0.143
*2 I *C 9.360 0.143
*3 I *C 9.512 0.143
*4 O *C 9.664 0.143
*5 O *C 9.816 0.143
*6 O *C 9.968 0.143
*7 O *C 10.120 0.143
*8 I *C 5.484 5.180
*9 I *C 5.484 5.180

*D_NET *1 1.271859 //LENGTH 15.616 LUMPCC 0 DR

*CONN
*P *1 I *L 0 *C 9.208 0.258
*I *11:CLK I *L 0.715443 *C 6.280 2.520
*I *12:CLK I *L 0.715443 *C 2.064 2.520
*I *13:CLK I *L 0.715443 *C 1.867 5.864
*I *10:CLK I *L 0.715443 *C 1.715 6.168
*N *1:5 *C 9.026 0.392
*N *1:6 *C 1.760 6.339
*N *1:7 *C 1.760 6.168
*N *1:8 *C 1.760 6.168
*N *1:9 *C 1.774 6.168
*N *1:10 *C 1.912 6.168
*N *1:11 *C 1.912 5.682
*N *1:12 *C 1.912 5.864
*N *1:13 *C 1.912 5.852
*N *1:14 *C 1.912 5.865
*N *1:15 *C 1.912 5.851
*N *1:16 *C 1.912 2.534
*N *1:17 *C 1.925 2.520
*N *1:18 *C 2.064 2.338
*N *1:19 *C 2.064 2.508
*N *1:20 *C 2.078 2.520
*N *1:21 *C 6.168 2.338
*N *1:22 *C 6.181 2.520
*N *1:23 *C 6.168 2.508
*N *1:24 *C 6.168 2.520
*N *1:25 *C 9.194 2.520
*N *1:26 *C 9.208 2.506
*N *1:27 *C 9.208 0.406
*N *1:28 *C 9.196 0.392
*N *1:29 *C 9.208 0.379

*CAP
0 *1 0.01776413
1 *11:CLK 0.01634684
2 *12:CLK 0.001
3 *13:CLK 0.01111893
4 *10:CLK 0.01144446
5 *1:5 0.01148396
6 *1:6 0.01508657
7 *1:7 0.009369059
8 *1:8 0.01063896
9 *1:9 0.009131607
10 *1:10 0.02514587
11 *1:11 0.01408047
12 *1:12 0.009043535
13 *1:13 0.009632852
14 *1:14 0.008898149
15 *1:15 0.1223165
16 *1:16 0.1223165
17 *1:17 0.01041362
18 *1:18 0.01249891
19 *1:19 0.006321791
20 *1:20 0.1690357
21 *1:21 0.01437063
22 *1:22 0.01427144
23 *1:23 0.009923009
24 *1:24 0.2989896
25 *1:25 0.1403675
26 *1:26 0.07435837
27 *1:27 0.07435837
28 *1:28 0.006740069
29 *1:29 0.01539191

*RES
0 *1 *1:29 0.2151786
1 *1:25 *1:24 5.404464
2 *1:26 *1:25 0.5
3 *1:28 *1:27 0.5
4 *1:28 *1:5 0.2825
5 *1:27 *1:26 3.751786
6 *1:29 *1:28 0.5
7 *1:23 *1:22 1
8 *1:23 *1:21 0.2825
9 *1:24 *1:23 0.5
10 *1:24 *1:20 7.304464
11 *1:22 *11:CLK 0.1658334
12 *1:19 *12:CLK 1
13 *1:19 *1:18 0.2825
14 *1:20 *1:19 0.5
15 *1:20 *1:17 0.255
16 *1:17 *1:16 0.5
17 *1:16 *1:15 5.923214
18 *1:14 *1:13 0.5
19 *1:14 *1:10 0.5410715
20 *1:15 *1:14 0.5
21 *1:13 *1:12 1
22 *1:13 *1:11 0.2825
23 *1:12 *13:CLK 0.09166668
24 *1:8 *1:7 1
25 *1:8 *1:6 0.285
26 *1:9 *1:8 0.5
27 *1:7 *10:CLK 0.09166668
28 *1:10 *1:9 0.2473215

*END

*D_NET *2 0.610472 //LENGTH 5.146 LUMPCC 0 DR

*CONN
*P *2 I *L 0 *C 9.360 0.258
*I *16:A I *L 0.604022 *C 9.694 3.584
*N *2:2 *C 10.257 3.584
*N *2:3 *C 10.272 3.571
*N *2:4 *C 10.272 2.838
*N *2:5 *C 10.258 2.824
*N *2:6 *C 9.373 2.824
*N *2:7 *C 9.360 2.811

*CAP
0 *2 0.1802348
1 *16:A 0.04032042
2 *2:2 0.03824502
3 *2:3 0.04930151
4 *2:4 0.0490047
5 *2:5 0.03775144
6 *2:6 0.03775144
7 *2:7 0.1778626

*RES
0 *2 *2:7 4.558036
1 *2:2 *16:A 1.126
2 *2:3 *2:2 1
3 *2:4 *2:3 1.308929
4 *2:5 *2:4 0.5
5 *2:7 *2:6 0.5
6 *2:6 *2:5 1.580357

*END

*D_NET *3 0.9508333 //LENGTH 8.483 LUMPCC 0 DR

*CONN
*P *3 I *L 0 *C 9.512 0.258
*I *17:A I *L 1.976759 *C 7.803 6.472
*N *3:2 *C 7.701 6.472
*N *3:3 *C 7.688 6.458
*N *3:4 *C 7.688 5.878
*N *3:5 *C 7.702 5.864
*N *3:6 *C 9.498 5.864
*N *3:7 *C 9.512 5.851

*CAP
0 *3 0.3563397
1 *17:A 0.0122899
2 *3:2 0.0102145
3 *3:3 0.03675136
4 *3:4 0.03645454
5 *3:5 0.07240797
6 *3:6 0.07240797
7 *3:7 0.3539675

*RES
0 *3 *3:7 9.986608
1 *3:2 *17:A 0.17
2 *3:3 *3:2 1
3 *3:4 *3:3 1.0375
4 *3:5 *3:4 0.5
5 *3:7 *3:6 0.5
6 *3:6 *3:5 3.208929

*END

*D_NET *4 1.298697 //LENGTH 14.349 LUMPCC 0 DR

*CONN
*I *13:Q O *L 0 *C 5.104 5.408
*P *4 O *L 0 *C 9.664 0.240
*I *20:A0 I *L 1.059197 *C 9.512 8.448
*N *4:3 *C 9.512 8.434
*N *4:4 *C 9.512 8.296
*N *4:5 *C 9.360 8.296
*N *4:6 *C 9.649 0.240
*N *4:7 *C 9.071 0.240
*N *4:8 *C 9.056 0.254
*N *4:9 *C 9.056 3.888
*N *4:10 *C 9.360 3.888
*N *4:11 *C 9.360 5.256
*N *4:12 *C 9.347 5.256
*N *4:13 *C 5.118 5.256
*N *4:14 *C 5.104 5.256
*N *4:15 *C 5.104 5.396

*CAP
0 *13:Q 0.001
1 *4 0.001
2 *20:A0 0.001
3 *4:3 0.005835617
4 *4:4 0.01720854
5 *4:5 0.1452999
6 *4:6 0.03269543
7 *4:7 0.03266915
8 *4:8 0.1764161
9 *4:9 0.1922709
10 *4:10 0.09701724
11 *4:11 0.2185975
12 *4:12 0.1797668
13 *4:13 0.1797668
14 *4:14 0.009792672
15 *4:15 0.008359993

*RES
0 *13:Q *4:15 1
1 *4:3 *20:A0 1
2 *4:7 *4:6 1.156
3 *4:8 *4:7 1
4 *4:6 *4 1
5 *4:11 *4:10 2.442857
6 *4:11 *4:5 5.428571
7 *4:12 *4:11 0.5
8 *4:14 *4:13 0.5
9 *4:13 *4:12 7.551786
10 *4:15 *4:14 0.2325
11 *4:9 *4:8 6.490179
12 *4:10 *4:9 0.5428572
13 *4:5 *4:4 0.2714286
14 *4:4 *4:3 0.2473214

*END

*D_NET *5 0.8652747 //LENGTH 8.555 LUMPCC 0 DR

*CONN
*I *12:Q O *L 0 *C 5.408 2.064
*P *5 O *L 0 *C 9.816 0.272
*I *19:A4 I *L 0.528265 *C 7.688 3.432
*N *5:3 *C 7.688 3.419
*N *5:4 *C 9.816 1.899
*N *5:5 *C 9.816 1.913
*N *5:6 *C 9.816 2.216
*N *5:7 *C 7.702 2.216
*N *5:8 *C 7.688 2.216
*N *5:9 *C 7.688 1.925
*N *5:10 *C 7.675 1.912
*N *5:11 *C 5.421 1.912
*N *5:12 *C 5.408 1.912
*N *5:13 *C 5.408 2.051

*CAP
0 *12:Q 0.001
1 *5 0.117432
2 *19:A4 0.001
3 *5:3 0.08116451
4 *5:4 0.1150598
5 *5:5 0.01097782
6 *5:6 0.10615
7 *5:7 0.0904277
8 *5:8 0.1070203
9 *5:9 0.02205092
10 *5:10 0.09754884
11 *5:11 0.09754884
12 *5:12 0.009663346
13 *5:13 0.008230668

*RES
0 *12:Q *5:13 1
1 *5:3 *19:A4 1
2 *5:8 *5:7 0.5
3 *5:8 *5:3 2.147322
4 *5:7 *5:6 3.775893
5 *5:4 *5 2.904464
6 *5:5 *5:4 0.5
7 *5:9 *5:8 0.5187501
8 *5:10 *5:9 0.5
9 *5:12 *5:11 0.5
10 *5:11 *5:10 4.023215
11 *5:13 *5:12 0.2325
12 *5:6 *5:5 0.5410715

*END

*D_NET *6 1.101024 //LENGTH 9.156 LUMPCC 0 DR

*CONN
*I *11:Q O *L 0 *C 9.664 2.064
*P *6 O *L 0 *C 9.968 0.258
*I *17:B I *L 1.946637 *C 8.296 7.080
*N *6:3 *C 8.296 7.067
*N *6:4 *C 8.296 6.486
*N *6:5 *C 8.309 6.472
*N *6:6 *C 9.955 6.472
*N *6:7 *C 9.968 6.458
*N *6:8 *C 9.968 2.064
*N *6:9 *C 9.678 2.064

*CAP
0 *11:Q 0.001
1 *6 0.1401599
2 *17:B 0.001
3 *6:3 0.03159105
4 *6:4 0.03302373
5 *6:5 0.0736422
6 *6:6 0.0736422
7 *6:7 0.2887137
8 *6:8 0.4466508
9 *6:9 0.01160011

*RES
0 *11:Q *6:9 1
1 *6:9 *6:8 0.5187501
2 *6:7 *6:6 0.5
3 *6:6 *6:5 2.9375
4 *6:4 *6:3 1.0375
5 *6:5 *6:4 0.5
6 *6:3 *17:B 1
7 *6:8 *6 3.225
8 *6:8 *6:7 7.847322

*END

*D_NET *7 1.283653 //LENGTH 12.532 LUMPCC 0 DR

*CONN
*I *10:Q O *L 0 *C 4.952 6.624
*I *17:CI I *L 1.474751 *C 7.992 7.080
*P *7 O *L 0 *C 10.120 0.258
*N *7:3 *C 10.120 6.763
*N *7:4 *C 10.107 6.776
*N *7:5 *C 7.992 7.067
*N *7:6 *C 7.992 6.790
*N *7:7 *C 7.992 6.776
*N *7:8 *C 4.966 6.776
*N *7:9 *C 4.952 6.764
*N *7:10 *C 4.952 6.624

*CAP
0 *10:Q 0.001
1 *17:CI 0.001
2 *7 0.4023536
3 *7:3 0.3999814
4 *7:4 0.08523928
5 *7:5 0.02251852
6 *7:6 0.0239512
7 *7:7 0.2059877
8 *7:8 0.1183762
9 *7:9 0.01233907
10 *7:10 0.01090639

*RES
0 *10:Q *7:10 1
1 *7:3 *7 11.61518
2 *7:4 *7:3 0.5
3 *7:6 *7:5 0.4946429
4 *7:7 *7:6 0.5
5 *7:7 *7:4 3.775893
6 *7:5 *17:CI 1
7 *7:9 *7:8 0.5
8 *7:8 *7:7 5.404464
9 *7:10 *7:9 0.2325

*END

*D_NET *25 0.6704361 //LENGTH 6.835 LUMPCC 0 DR

*CONN
*I *14:Y O *L 0 *C 6.016 4.952
*I *19:A3 I *L 0.560013 *C 7.992 3.280
*I *24:A I *L 0.434891 *C 9.816 5.104
*N *25:3 *C 6.016 4.770
*N *25:4 *C 9.816 5.091
*N *25:5 *C 9.816 4.662
*N *25:6 *C 9.816 4.649
*N *25:7 *C 9.816 4.952
*N *25:8 *C 7.992 3.294
*N *25:9 *C 7.992 4.939
*N *25:10 *C 7.992 4.952
*N *25:11 *C 6.030 4.952
*N *25:12 *C 6.016 4.940

*CAP
0 *14:Y 0.001
1 *19:A3 0.001
2 *24:A 0.001
3 *25:3 0.01708051
4 *25:4 0.03258092
5 *25:5 0.0340136
6 *25:6 0.01033381
7 *25:7 0.08942064
8 *25:8 0.1020039
9 *25:9 0.1034366
10 *25:10 0.1721887
11 *25:11 0.09547409
12 *25:12 0.01090339

*RES
0 *14:Y *25:12 1
1 *25:5 *25:4 0.7660715
2 *25:6 *25:5 0.5
3 *25:4 *24:A 1
4 *25:9 *25:8 2.9375
5 *25:10 *25:9 0.5
6 *25:10 *25:7 3.257143
7 *25:8 *19:A3 1
8 *25:12 *25:11 0.5
9 *25:12 *25:3 0.2825
10 *25:11 *25:10 3.504464
11 *25:7 *25:6 0.5410714

*END

*D_NET *26 0.566337 //LENGTH 7.018 LUMPCC 0 DR

*CONN
*I *18:S O *L 0 *C 5.408 8.752
*I *22:A I *L 0.434891 *C 3.888 3.584
*N *26:2 *C 3.888 3.598
*N *26:3 *C 3.888 4.027
*N *26:4 *C 3.901 4.040
*N *26:5 *C 5.394 4.040
*N *26:6 *C 5.408 4.054
*N *26:7 *C 5.408 8.739

*CAP
0 *18:S 0.001
1 *22:A 0.001
2 *26:2 0.02101072
3 *26:3 0.0224434
4 *26:4 0.05800665
5 *26:5 0.05800665
6 *26:6 0.2031511
7 *26:7 0.2017184

*RES
0 *18:S *26:7 1
1 *26:2 *22:A 1
2 *26:3 *26:2 0.7660714
3 *26:4 *26:3 0.5
4 *26:6 *26:5 0.5
5 *26:5 *26:4 2.666071
6 *26:7 *26:6 8.366072

*END

*D_NET *27 0.6978269 //LENGTH 6.452 LUMPCC 0 DR

*CONN
*I *20:SO O *L 0 *C 7.980 8.617
*I *23:A I *L 0.434891 *C 6.928 3.584
*N *27:2 *C 6.928 3.598
*N *27:3 *C 6.928 6.458
*N *27:4 *C 6.942 6.472
*N *27:5 *C 7.827 6.472
*N *27:6 *C 7.840 6.486
*N *27:7 *C 7.840 8.587
*N *27:8 *C 7.853 8.600

*CAP
0 *20:SO 0.01324777
1 *23:A 0.001
2 *27:2 0.1790568
3 *27:3 0.1804894
4 *27:4 0.04624458
5 *27:5 0.04624458
6 *27:6 0.1100373
7 *27:7 0.1103341
8 *27:8 0.01117238

*RES
0 *20:SO *27:8 0.2116667
1 *27:2 *23:A 1
2 *27:3 *27:2 5.108929
3 *27:4 *27:3 0.5
4 *27:6 *27:5 0.5
5 *27:5 *27:4 1.580357
6 *27:8 *27:7 1
7 *27:7 *27:6 3.751786

*END

*D_NET *28 1.3998 //LENGTH 17.366 LUMPCC 0 DR

*CONN
*I *16:Y O *L 0 *C 9.360 3.736
*I *12:RSTB I *L 0.924894 *C 3.280 1.152
*I *13:RSTB I *L 0.924894 *C 2.976 4.496
*I *10:RSTB I *L 0.924894 *C 2.824 7.536
*I *11:RSTB I *L 0.924894 *C 7.536 1.152
*N *28:5 *C 9.360 3.554
*N *28:6 *C 7.536 1.165
*N *28:7 *C 2.824 7.522
*N *28:8 *C 2.824 6.472
*N *28:9 *C 2.976 6.472
*N *28:10 *C 2.976 4.510
*N *28:11 *C 2.976 4.357
*N *28:12 *C 2.990 4.344
*N *28:13 *C 3.267 4.344
*N *28:14 *C 3.280 4.330
*N *28:15 *C 3.280 1.165
*N *28:16 *C 3.280 1.012
*N *28:17 *C 3.294 1.000
*N *28:18 *C 7.536 1.000
*N *28:19 *C 7.536 1.303
*N *28:20 *C 7.537 1.304
*N *28:21 *C 7.840 1.304
*N *28:22 *C 7.840 3.723
*N *28:23 *C 7.854 3.736
*N *28:24 *C 9.347 3.736
*N *28:25 *C 9.360 3.724

*CAP
0 *16:Y 0.001
1 *12:RSTB 0.001
2 *13:RSTB 0.001
3 *10:RSTB 0.001
4 *11:RSTB 0.001
5 *28:5 0.01793359
6 *28:6 0.006442589
7 *28:7 0.04457573
8 *28:8 0.05688939
9 *28:9 0.09244919
10 *28:10 0.09225876
11 *28:11 0.009751004
12 *28:12 0.01350678
13 *28:13 0.01350678
14 *28:14 0.1337597
15 *28:15 0.1421944
16 *28:16 0.0074952
17 *28:17 0.1371935
18 *28:18 0.1508154
19 *28:19 0.008877439
20 *28:20 0.02129347
21 *28:21 0.1625965
22 *28:22 0.1468061
23 *28:23 0.06234881
24 *28:24 0.06234881
25 *28:25 0.01175647

*RES
0 *16:Y *28:25 1
1 *28:22 *28:21 4.31875
2 *28:23 *28:22 0.5
3 *28:25 *28:24 0.5
4 *28:25 *28:5 0.2825
5 *28:24 *28:23 2.666072
6 *28:6 *11:RSTB 1
7 *28:15 *12:RSTB 1
8 *28:15 *28:14 5.651786
9 *28:20 *28:19 0.5
10 *28:20 *28:6 0.2325
11 *28:19 *28:18 0.5410715
12 *28:16 *28:15 0.255
13 *28:17 *28:16 0.5
14 *28:10 *13:RSTB 1
15 *28:10 *28:9 3.504464
16 *28:14 *28:13 0.5
17 *28:13 *28:12 0.4946429
18 *28:11 *28:10 0.255
19 *28:12 *28:11 0.5
20 *28:7 *10:RSTB 1
21 *28:8 *28:7 1.875893
22 *28:9 *28:8 0.2714286
23 *28:21 *28:20 0.5410715
24 *28:18 *28:17 7.575893

*END

*D_NET *29 0.9909775 //LENGTH 9.396 LUMPCC 0 DR

*CONN
*I *17:CO O *L 0 *C 6.016 6.776
*I *15:A I *L 0.604022 *C 6.624 5.104
*I *19:A5 I *L 0.569714 *C 8.144 3.736
*I *18:B I *L 1.946637 *C 7.384 8.296
*N *29:4 *C 7.384 8.283
*N *29:5 *C 7.384 7.688
*N *29:6 *C 7.536 7.688
*N *29:7 *C 7.536 6.182
*N *29:8 *C 7.522 6.168
*N *29:9 *C 8.144 3.750
*N *29:10 *C 8.144 4.330
*N *29:11 *C 8.130 4.344
*N *29:12 *C 6.638 4.344
*N *29:13 *C 6.624 4.357
*N *29:14 *C 6.624 5.104
*N *29:15 *C 6.624 5.560
*N *29:16 *C 6.776 5.560
*N *29:17 *C 6.776 6.155
*N *29:18 *C 6.776 6.168
*N *29:19 *C 6.030 6.168
*N *29:20 *C 6.016 6.182
*N *29:21 *C 6.016 6.763

*CAP
0 *17:CO 0.001
1 *15:A 0.001
2 *19:A5 0.001
3 *18:B 0.001
4 *29:4 0.0382466
5 *29:5 0.05059791
6 *29:6 0.09827232
7 *29:7 0.08735368
8 *29:8 0.03999008
9 *29:9 0.04078579
10 *29:10 0.04221847
11 *29:11 0.06777823
12 *29:12 0.06777823
13 *29:13 0.04026689
14 *29:14 0.06597815
15 *29:15 0.03619378
16 *29:16 0.05937707
17 *29:17 0.04795502
18 *29:18 0.0833746
19 *29:19 0.04101231
20 *29:20 0.04061552
21 *29:21 0.03918284

*RES
0 *17:CO *29:21 1
1 *29:7 *29:6 2.690179
2 *29:8 *29:7 0.5
3 *29:4 *18:B 1
4 *29:17 *29:16 1.061607
5 *29:18 *29:17 0.5
6 *29:18 *29:8 1.333036
7 *29:14 *15:A 1
8 *29:14 *29:13 1.333036
9 *29:13 *29:12 0.5
10 *29:12 *29:11 2.666071
11 *29:10 *29:9 1.0375
12 *29:11 *29:10 0.5
13 *29:9 *19:A5 1
14 *29:20 *29:19 0.5
15 *29:19 *29:18 1.333036
16 *29:21 *29:20 1.0375
17 *29:15 *29:14 0.8142858
18 *29:16 *29:15 0.2714286
19 *29:5 *29:4 1.061607
20 *29:6 *29:5 0.2714286

*END

*D_NET *30 0.355872 //LENGTH 3.674 LUMPCC 0 DR

*CONN
*I *15:Y O *L 0 *C 6.320 4.952
*I *19:A2 I *L 0.536319 *C 7.536 2.824
*N *30:2 *C 7.536 2.838
*N *30:3 *C 7.536 3.723
*N *30:4 *C 7.522 3.736
*N *30:5 *C 6.333 3.736
*N *30:6 *C 6.320 3.750
*N *30:7 *C 6.320 4.939

*CAP
0 *15:Y 0.001
1 *19:A2 0.001
2 *30:2 0.06171853
3 *30:3 0.06315122
4 *30:4 0.04996464
5 *30:5 0.04996464
6 *30:6 0.0652528
7 *30:7 0.06382012

*RES
0 *15:Y *30:7 1
1 *30:2 *19:A2 1
2 *30:3 *30:2 1.580357
3 *30:4 *30:3 0.5
4 *30:6 *30:5 0.5
5 *30:5 *30:4 2.123214
6 *30:7 *30:6 2.123214

*END

*D_NET *31 0.8921632 //LENGTH 9.094 LUMPCC 0 DR

*CONN
*I *17:S O *L 0 *C 6.308 6.624
*I *19:A1 I *L 0.510932 *C 7.384 3.584
*I *14:A I *L 0.604022 *C 5.712 5.104
*I *18:A I *L 1.976759 *C 6.928 8.904
*N *31:4 *C 6.928 8.891
*N *31:5 *C 6.928 7.397
*N *31:6 *C 6.915 7.384
*N *31:7 *C 6.182 7.384
*N *31:8 *C 6.168 7.371
*N *31:9 *C 5.712 5.091
*N *31:10 *C 5.712 4.648
*N *31:11 *C 7.384 3.598
*N *31:12 *C 7.384 4.635
*N *31:13 *C 7.371 4.648
*N *31:14 *C 6.182 4.648
*N *31:15 *C 6.168 4.662
*N *31:16 *C 6.168 6.624
*N *31:17 *C 6.181 6.624

*CAP
0 *17:S 0.01443284
1 *19:A1 0.001
2 *14:A 0.001
3 *18:A 0.001
4 *31:4 0.06793473
5 *31:5 0.06936741
6 *31:6 0.02942699
7 *31:7 0.02942699
8 *31:8 0.03717114
9 *31:9 0.02180615
10 *31:10 0.04689924
11 *31:11 0.07797439
12 *31:12 0.07940707
13 *31:13 0.05990049
14 *31:14 0.05990049
15 *31:15 0.1323029
16 *31:16 0.1508549
17 *31:17 0.01235744

*RES
0 *17:S *31:17 0.2116667
1 *31:8 *31:7 0.5
2 *31:7 *31:6 1.308929
3 *31:5 *31:4 2.666071
4 *31:6 *31:5 0.5
5 *31:4 *18:A 1
6 *31:17 *31:16 1
7 *31:16 *31:15 3.504465
8 *31:16 *31:8 1.333036
9 *31:15 *31:14 0.5
10 *31:15 *31:10 0.8142858
11 *31:14 *31:13 2.123214
12 *31:12 *31:11 1.851786
13 *31:13 *31:12 0.5
14 *31:11 *19:A1 1
15 *31:9 *14:A 1
16 *31:10 *31:9 0.7901786

*END

*D_NET *32 0.4905043 //LENGTH 5.855 LUMPCC 0 DR

*CONN
*I *19:Y O *L 0 *C 8.904 3.888
*I *20:B0 I *L 1.004534 *C 9.056 8.296
*N *32:2 *C 9.056 8.114
*N *32:3 *C 9.056 8.284
*N *32:4 *C 9.043 8.296
*N *32:5 *C 8.614 8.296
*N *32:6 *C 8.600 8.283
*N *32:7 *C 8.600 4.054
*N *32:8 *C 8.614 4.040
*N *32:9 *C 8.891 4.040
*N *32:10 *C 8.904 4.027
*N *32:11 *C 8.904 3.888

*CAP
0 *19:Y 0.001
1 *20:B0 0.001
2 *32:2 0.01139754
3 *32:3 0.005220421
4 *32:4 0.01612262
5 *32:5 0.01612262
6 *32:6 0.1905693
7 *32:7 0.1905693
8 *32:8 0.01756002
9 *32:9 0.01756002
10 *32:10 0.01240755
11 *32:11 0.01097487

*RES
0 *19:Y *32:11 1
1 *32:3 *20:B0 1
2 *32:3 *32:2 0.2825
3 *32:4 *32:3 0.5
4 *32:6 *32:5 0.5
5 *32:5 *32:4 0.7660714
6 *32:7 *32:6 7.551786
7 *32:8 *32:7 0.5
8 *32:10 *32:9 0.5
9 *32:9 *32:8 0.4946429
10 *32:11 *32:10 0.2325

*END

*D_NET *33 0.9783589 //LENGTH 9.613 LUMPCC 0 DR

*CONN
*I *12:QN O *L 0 *C 5.574 2.204
*I *18:CI I *L 1.474751 *C 7.080 8.296
*I *19:A6 I *L 0.642668 *C 8.296 3.128
*N *33:3 *C 8.296 2.946
*N *33:4 *C 8.296 3.115
*N *33:5 *C 8.283 3.128
*N *33:6 *C 7.081 8.296
*N *33:7 *C 7.232 8.296
*N *33:8 *C 7.232 3.142
*N *33:9 *C 7.232 3.128
*N *33:10 *C 5.726 3.128
*N *33:11 *C 5.712 3.115
*N *33:12 *C 5.712 2.230
*N *33:13 *C 5.700 2.216

*CAP
0 *12:QN 0.01583624
1 *18:CI 0.001
2 *19:A6 0.001
3 *33:3 0.01315058
4 *33:4 0.006973464
5 *33:5 0.04085553
6 *33:6 0.004400355
7 *33:7 0.3220858
8 *33:8 0.3115083
9 *33:9 0.1028002
10 *33:10 0.05957244
11 *33:11 0.04255915
12 *33:12 0.04285597
13 *33:13 0.01376084

*RES
0 *12:QN *33:13 0.21
1 *33:4 *19:A6 1
2 *33:4 *33:3 0.2825
3 *33:5 *33:4 0.5
4 *33:8 *33:7 9.204465
5 *33:9 *33:8 0.5
6 *33:9 *33:5 1.875893
7 *33:6 *18:CI 1
8 *33:11 *33:10 0.5
9 *33:10 *33:9 2.690179
10 *33:13 *33:12 1
11 *33:12 *33:11 1.580357
12 *33:7 *33:6 0.2696429

*END

*D_NET *34 0.4997962 //LENGTH 6.233 LUMPCC 0 DR

*CONN
*I *10:QN O *L 0 *C 5.104 6.472
*I *21:A I *L 0.427737 *C 1.152 8.448
*N *34:2 *C 1.152 8.434
*N *34:3 *C 1.152 7.397
*N *34:4 *C 1.165 7.384
*N *34:5 *C 5.091 7.384
*N *34:6 *C 5.104 7.371
*N *34:7 *C 5.104 6.473

*CAP
0 *10:QN 0.001
1 *21:A 0.001
2 *34:2 0.05572995
3 *34:3 0.05716263
4 *34:4 0.1435078
5 *34:5 0.1435078
6 *34:6 0.04966036
7 *34:7 0.04822768

*RES
0 *10:QN *34:7 1
1 *34:2 *21:A 1
2 *34:3 *34:2 1.851786
3 *34:4 *34:3 0.5
4 *34:6 *34:5 0.5
5 *34:5 *34:4 7.008929
6 *34:7 *34:6 1.602679

*END

*D_NET *35 0.3829039 //LENGTH 5.174 LUMPCC 0 DR

*CONN
*I *21:Y O *L 0 *C 4.800 8.296
*I *10:D I *L 0.557097 *C 1.304 7.080
*N *35:2 *C 4.800 8.114
*N *35:3 *C 1.304 7.094
*N *35:4 *C 1.304 8.283
*N *35:5 *C 1.318 8.296
*N *35:6 *C 4.787 8.296
*N *35:7 *C 4.800 8.284

*CAP
0 *21:Y 0.001
1 *10:D 0.001
2 *35:2 0.01160693
3 *35:3 0.0608203
4 *35:4 0.06225298
5 *35:5 0.120397
6 *35:6 0.120397
7 *35:7 0.005429819

*RES
0 *21:Y *35:7 1
1 *35:3 *10:D 1
2 *35:4 *35:3 2.123214
3 *35:5 *35:4 0.5
4 *35:7 *35:6 0.5
5 *35:7 *35:2 0.2825
6 *35:6 *35:5 6.194643

*END

*D_NET *36 0.2552169 //LENGTH 2.902 LUMPCC 0 DR

*CONN
*I *22:Y O *L 0 *C 1.152 3.736
*I *12:D I *L 0.557097 *C 1.730 1.608
*N *36:2 *C 1.319 1.608
*N *36:3 *C 1.303 1.608
*N *36:4 *C 1.152 1.608
*N *36:5 *C 1.152 3.723

*CAP
0 *22:Y 0.001
1 *12:D 0.03026597
2 *36:2 0.02819057
3 *36:3 0.006253054
4 *36:4 0.1008203
5 *36:5 0.08868699

*RES
0 *22:Y *36:5 1
1 *36:2 *12:D 0.8220001
2 *36:3 *36:2 1
3 *36:5 *36:4 3.775893
4 *36:4 *36:3 0.2696429

*END

*D_NET *37 0.3353615 //LENGTH 4.414 LUMPCC 0 DR

*CONN
*I *23:Y O *L 0 *C 4.192 3.736
*I *13:D I *L 0.557097 *C 1.456 4.952
*N *37:2 *C 4.192 3.554
*N *37:3 *C 1.456 4.939
*N *37:4 *C 1.456 3.750
*N *37:5 *C 1.470 3.736
*N *37:6 *C 4.179 3.736
*N *37:7 *C 4.192 3.724

*CAP
0 *23:Y 0.001
1 *13:D 0.001
2 *37:2 0.01312018
3 *37:3 0.05246648
4 *37:4 0.05389916
5 *37:5 0.1034663
6 *37:6 0.1034663
7 *37:7 0.006943061

*RES
0 *23:Y *37:7 1
1 *37:3 *13:D 1
2 *37:4 *37:3 2.123214
3 *37:5 *37:4 0.5
4 *37:7 *37:6 0.5
5 *37:7 *37:2 0.2825
6 *37:6 *37:5 4.837501

*END

*D_NET *38 0.5483677 //LENGTH 4.870 LUMPCC 0 DR

*CONN
*I *24:Y O *L 0 *C 7.080 4.952
*I *11:D I *L 0.557097 *C 6.016 1.608
*N *38:2 *C 6.016 1.426
*N *38:3 *C 6.016 1.596
*N *38:4 *C 6.030 1.608
*N *38:5 *C 7.067 1.608
*N *38:6 *C 7.080 1.622
*N *38:7 *C 7.080 4.939

*CAP
0 *24:Y 0.001
1 *11:D 0.001
2 *38:2 0.01200277
3 *38:3 0.005825656
4 *38:4 0.04974269
5 *38:5 0.04974269
6 *38:6 0.2152433
7 *38:7 0.2138106

*RES
0 *24:Y *38:7 1
1 *38:3 *11:D 1
2 *38:3 *38:2 0.2825
3 *38:4 *38:3 0.5
4 *38:6 *38:5 0.5
5 *38:5 *38:4 1.851786
6 *38:7 *38:6 5.923215

*END

