*SPEF "1481-1998"
*DESIGN "updown_counter"
*DATE "Sun Apr  5 05:45:46 2026"
*VENDOR "Synopsys, Inc."
*PROGRAM "icc2 /home/synopsys_install/icc2/W-2024.09/linux64/nwtn/bin/icc2_exec"
*VERSION "W-2024.09 Aug 25, 2024"
*DESIGN_FLOW "ICC2 SPEF DR"
*DIVIDER /
*DELIMITER :
*BUS_DELIMITER [ ]
*T_UNIT 1 NS
*C_UNIT 1 FF
*R_UNIT 1 OHM
*L_UNIT 1 HENRY

// XY_UNIT 1 UM
// PARASITIC_TECH p2 at 125.000 degree

*NAME_MAP
*1 Clock
*2 rst
*3 dir
*4 count[3]
*5 count[2]
*6 count[1]
*7 count[0]
*8 VDD
*9 VSS
*10 count_reg[0]
*11 count_reg[1]
*12 count_reg[2]
*13 count_reg[3]
*14 U12
*15 U13
*16 U14
*17 U15
*18 U16
*19 U17
*20 U18
*21 copt_h_inst_690
*22 copt_h_inst_691
*23 copt_h_inst_693
*24 copt_h_inst_694
*25 N14
*26 N15
*27 N16
*28 n6
*29 n7
*30 n8
*31 n9
*32 n10
*33 n11
*34 n12
*35 copt_net_0
*36 copt_net_1
*37 copt_net_3
*38 copt_net_4

*PORTS

*1 I *C 9.208 0.143
*2 I *C 9.360 0.143
*3 I *C 9.512 0.143
*4 O *C 9.664 0.143
*5 O *C 9.816 0.143
*6 O *C 9.968 0.143
*7 O *C 10.120 0.143
*8 I *C 5.484 5.180
*9 I *C 5.484 5.180

*D_NET *1 1.116642 //LENGTH 15.616 LUMPCC 0 DR

*CONN
*P *1 I *L 0 *C 9.208 0.258
*I *11:CLK I *L 0.715443 *C 6.280 2.520
*I *12:CLK I *L 0.715443 *C 2.064 2.520
*I *13:CLK I *L 0.715443 *C 1.867 5.864
*I *10:CLK I *L 0.715443 *C 1.715 6.168
*N *1:5 *C 9.026 0.392
*N *1:6 *C 1.760 6.339
*N *1:7 *C 1.760 6.168
*N *1:8 *C 1.760 6.168
*N *1:9 *C 1.774 6.168
*N *1:10 *C 1.912 6.168
*N *1:11 *C 1.912 5.682
*N *1:12 *C 1.912 5.864
*N *1:13 *C 1.912 5.852
*N *1:14 *C 1.912 5.865
*N *1:15 *C 1.912 5.851
*N *1:16 *C 1.912 2.534
*N *1:17 *C 1.925 2.520
*N *1:18 *C 2.064 2.338
*N *1:19 *C 2.064 2.508
*N *1:20 *C 2.078 2.520
*N *1:21 *C 6.168 2.338
*N *1:22 *C 6.181 2.520
*N *1:23 *C 6.168 2.508
*N *1:24 *C 6.168 2.520
*N *1:25 *C 9.194 2.520
*N *1:26 *C 9.208 2.506
*N *1:27 *C 9.208 0.406
*N *1:28 *C 9.196 0.392
*N *1:29 *C 9.208 0.379

*CAP
0 *1 0.0157536
1 *11:CLK 0.01409118
2 *12:CLK 0.001
3 *13:CLK 0.009516001
4 *10:CLK 0.00983463
5 *1:5 0.009596978
6 *1:6 0.0128423
7 *1:7 0.008240504
8 *1:8 0.009469135
9 *1:9 0.008203012
10 *1:10 0.02138993
11 *1:11 0.01199533
12 *1:12 0.007921874
13 *1:13 0.008622173
14 *1:14 0.007849916
15 *1:15 0.1041468
16 *1:16 0.1041468
17 *1:17 0.009217085
18 *1:18 0.01056103
19 *1:19 0.005859435
20 *1:20 0.149969
21 *1:21 0.01214302
22 *1:22 0.01249705
23 *1:23 0.008769856
24 *1:24 0.2671551
25 *1:25 0.1264032
26 *1:26 0.06471686
27 *1:27 0.06471686
28 *1:28 0.006039011
29 *1:29 0.01397456

*RES
0 *1 *1:29 0.2151786
1 *1:25 *1:24 5.404464
2 *1:26 *1:25 0.5
3 *1:28 *1:27 0.5
4 *1:28 *1:5 0.2825
5 *1:27 *1:26 3.751786
6 *1:29 *1:28 0.5
7 *1:23 *1:22 1
8 *1:23 *1:21 0.2825
9 *1:24 *1:23 0.5
10 *1:24 *1:20 7.304464
11 *1:22 *11:CLK 0.1658334
12 *1:19 *12:CLK 1
13 *1:19 *1:18 0.2825
14 *1:20 *1:19 0.5
15 *1:20 *1:17 0.255
16 *1:17 *1:16 0.5
17 *1:16 *1:15 5.923214
18 *1:14 *1:13 0.5
19 *1:14 *1:10 0.5410715
20 *1:15 *1:14 0.5
21 *1:13 *1:12 1
22 *1:13 *1:11 0.2825
23 *1:12 *13:CLK 0.09166668
24 *1:8 *1:7 1
25 *1:8 *1:6 0.285
26 *1:9 *1:8 0.5
27 *1:7 *10:CLK 0.09166668
28 *1:10 *1:9 0.2473215

*END

*D_NET *2 0.536421 //LENGTH 5.146 LUMPCC 0 DR

*CONN
*P *2 I *L 0 *C 9.360 0.258
*I *16:A I *L 0.604022 *C 9.694 3.584
*N *2:2 *C 10.257 3.584
*N *2:3 *C 10.272 3.571
*N *2:4 *C 10.272 2.838
*N *2:5 *C 10.258 2.824
*N *2:6 *C 9.373 2.824
*N *2:7 *C 9.360 2.811

*CAP
0 *2 0.1606594
1 *16:A 0.03311605
2 *2:2 0.03152193
3 *2:3 0.0432994
4 *2:4 0.04311449
5 *2:5 0.0329147
6 *2:6 0.0329147
7 *2:7 0.1588804

*RES
0 *2 *2:7 4.558036
1 *2:2 *16:A 1.126
2 *2:3 *2:2 1
3 *2:4 *2:3 1.308929
4 *2:5 *2:4 0.5
5 *2:7 *2:6 0.5
6 *2:6 *2:5 1.580357

*END

*D_NET *3 0.8476373 //LENGTH 8.483 LUMPCC 0 DR

*CONN
*P *3 I *L 0 *C 9.512 0.258
*I *17:A I *L 1.976759 *C 7.803 6.472
*N *3:2 *C 7.701 6.472
*N *3:3 *C 7.688 6.458
*N *3:4 *C 7.688 5.878
*N *3:5 *C 7.702 5.864
*N *3:6 *C 9.498 5.864
*N *3:7 *C 9.512 5.851

*CAP
0 *3 0.3174424
1 *17:A 0.01026319
2 *3:2 0.00866906
3 *3:3 0.03210922
4 *3:4 0.03192431
5 *3:5 0.06578293
6 *3:6 0.06578293
7 *3:7 0.3156633

*RES
0 *3 *3:7 9.986608
1 *3:2 *17:A 0.17
2 *3:3 *3:2 1
3 *3:4 *3:3 1.0375
4 *3:5 *3:4 0.5
5 *3:7 *3:6 0.5
6 *3:6 *3:5 3.208929

*END

*D_NET *4 1.146255 //LENGTH 14.349 LUMPCC 0 DR

*CONN
*I *13:Q O *L 0 *C 5.104 5.408
*P *4 O *L 0 *C 9.664 0.240
*I *20:A0 I *L 1.059197 *C 9.512 8.448
*N *4:3 *C 9.512 8.434
*N *4:4 *C 9.512 8.296
*N *4:5 *C 9.360 8.296
*N *4:6 *C 9.649 0.240
*N *4:7 *C 9.071 0.240
*N *4:8 *C 9.056 0.254
*N *4:9 *C 9.056 3.888
*N *4:10 *C 9.360 3.888
*N *4:11 *C 9.360 5.256
*N *4:12 *C 9.347 5.256
*N *4:13 *C 5.118 5.256
*N *4:14 *C 5.104 5.256
*N *4:15 *C 5.104 5.396

*CAP
0 *13:Q 0.001
1 *4 0.001
2 *20:A0 0.001
3 *4:3 0.005517818
4 *4:4 0.01502577
5 *4:5 0.127432
6 *4:6 0.02566657
7 *4:7 0.02564882
8 *4:8 0.156048
9 *4:9 0.1694842
10 *4:10 0.08563396
11 *4:11 0.1928594
12 *4:12 0.1616669
13 *4:13 0.1616669
14 *4:14 0.00887436
15 *4:15 0.007730829

*RES
0 *13:Q *4:15 1
1 *4:3 *20:A0 1
2 *4:7 *4:6 1.156
3 *4:8 *4:7 1
4 *4:6 *4 1
5 *4:11 *4:10 2.442857
6 *4:11 *4:5 5.428571
7 *4:12 *4:11 0.5
8 *4:14 *4:13 0.5
9 *4:13 *4:12 7.551786
10 *4:15 *4:14 0.2325
11 *4:9 *4:8 6.490179
12 *4:10 *4:9 0.5428572
13 *4:5 *4:4 0.2714286
14 *4:4 *4:3 0.2473214

*END

*D_NET *5 0.7729469 //LENGTH 8.555 LUMPCC 0 DR

*CONN
*I *12:Q O *L 0 *C 5.408 2.064
*P *5 O *L 0 *C 9.816 0.272
*I *19:A4 I *L 0.528265 *C 7.688 3.432
*N *5:3 *C 7.688 3.419
*N *5:4 *C 9.816 1.899
*N *5:5 *C 9.816 1.913
*N *5:6 *C 9.816 2.216
*N *5:7 *C 7.702 2.216
*N *5:8 *C 7.688 2.216
*N *5:9 *C 7.688 1.925
*N *5:10 *C 7.675 1.912
*N *5:11 *C 5.421 1.912
*N *5:12 *C 5.408 1.912
*N *5:13 *C 5.408 2.051

*CAP
0 *12:Q 0.001
1 *5 0.1048409
2 *19:A4 0.001
3 *5:3 0.07197509
4 *5:4 0.1030618
5 *5:5 0.009395442
6 *5:6 0.09356859
7 *5:7 0.08061509
8 *5:8 0.09460113
9 *5:9 0.01970349
10 *5:10 0.0885538
11 *5:11 0.0885538
12 *5:12 0.008610636
13 *5:13 0.007467104

*RES
0 *12:Q *5:13 1
1 *5:3 *19:A4 1
2 *5:8 *5:7 0.5
3 *5:8 *5:3 2.147322
4 *5:7 *5:6 3.775893
5 *5:4 *5 2.904464
6 *5:5 *5:4 0.5
7 *5:9 *5:8 0.5187501
8 *5:10 *5:9 0.5
9 *5:12 *5:11 0.5
10 *5:11 *5:10 4.023215
11 *5:13 *5:12 0.2325
12 *5:6 *5:5 0.5410715

*END

*D_NET *6 0.9811502 //LENGTH 9.156 LUMPCC 0 DR

*CONN
*I *11:Q O *L 0 *C 9.664 2.064
*P *6 O *L 0 *C 9.968 0.258
*I *17:B I *L 1.946637 *C 8.296 7.080
*N *6:3 *C 8.296 7.067
*N *6:4 *C 8.296 6.486
*N *6:5 *C 8.309 6.472
*N *6:6 *C 9.955 6.472
*N *6:7 *C 9.968 6.458
*N *6:8 *C 9.968 2.064
*N *6:9 *C 9.678 2.064

*CAP
0 *11:Q 0.001
1 *6 0.1244061
2 *17:B 0.001
3 *6:3 0.02865127
4 *6:4 0.02979481
5 *6:5 0.06683102
6 *6:6 0.06683102
7 *6:7 0.256734
8 *6:8 0.3958718
9 *6:9 0.01003005

*RES
0 *11:Q *6:9 1
1 *6:9 *6:8 0.5187501
2 *6:7 *6:6 0.5
3 *6:6 *6:5 2.9375
4 *6:4 *6:3 1.0375
5 *6:5 *6:4 0.5
6 *6:3 *17:B 1
7 *6:8 *6 3.225
8 *6:8 *6:7 7.847322

*END

*D_NET *7 1.135225 //LENGTH 12.532 LUMPCC 0 DR

*CONN
*I *10:Q O *L 0 *C 4.952 6.624
*I *17:CI I *L 1.474751 *C 7.992 7.080
*P *7 O *L 0 *C 10.120 0.258
*N *7:3 *C 10.120 6.763
*N *7:4 *C 10.107 6.776
*N *7:5 *C 7.992 7.067
*N *7:6 *C 7.992 6.790
*N *7:7 *C 7.992 6.776
*N *7:8 *C 4.966 6.776
*N *7:9 *C 4.952 6.764
*N *7:10 *C 4.952 6.624

*CAP
0 *10:Q 0.001
1 *17:CI 0.001
2 *7 0.3531384
3 *7:3 0.3513594
4 *7:4 0.07612594
5 *7:5 0.02037057
6 *7:6 0.0215141
7 *7:7 0.1838678
8 *7:8 0.1059628
9 *7:9 0.01101465
10 *7:10 0.009871121

*RES
0 *10:Q *7:10 1
1 *7:3 *7 11.61518
2 *7:4 *7:3 0.5
3 *7:6 *7:5 0.4946429
4 *7:7 *7:6 0.5
5 *7:7 *7:4 3.775893
6 *7:5 *17:CI 1
7 *7:9 *7:8 0.5
8 *7:8 *7:7 5.404464
9 *7:10 *7:9 0.2325

*END

*D_NET *25 0.6001168 //LENGTH 6.835 LUMPCC 0 DR

*CONN
*I *14:Y O *L 0 *C 6.016 4.952
*I *19:A3 I *L 0.560013 *C 7.992 3.280
*I *24:A I *L 0.434891 *C 9.816 5.104
*N *25:3 *C 6.016 4.770
*N *25:4 *C 9.816 5.091
*N *25:5 *C 9.816 4.662
*N *25:6 *C 9.816 4.649
*N *25:7 *C 9.816 4.952
*N *25:8 *C 7.992 3.294
*N *25:9 *C 7.992 4.939
*N *25:10 *C 7.992 4.952
*N *25:11 *C 6.030 4.952
*N *25:12 *C 6.016 4.940

*CAP
0 *14:Y 0.001
1 *19:A3 0.001
2 *24:A 0.001
3 *25:3 0.01490251
4 *25:4 0.02956181
5 *25:5 0.03070535
6 *25:6 0.008972272
7 *25:7 0.07971042
8 *25:8 0.0896011
9 *25:9 0.09074462
10 *25:10 0.1558385
11 *25:11 0.08687934
12 *25:12 0.01020091

*RES
0 *14:Y *25:12 1
1 *25:5 *25:4 0.7660715
2 *25:6 *25:5 0.5
3 *25:4 *24:A 1
4 *25:9 *25:8 2.9375
5 *25:10 *25:9 0.5
6 *25:10 *25:7 3.257143
7 *25:8 *19:A3 1
8 *25:12 *25:11 0.5
9 *25:12 *25:3 0.2825
10 *25:11 *25:10 3.504464
11 *25:7 *25:6 0.5410714

*END

*D_NET *26 0.4960017 //LENGTH 7.018 LUMPCC 0 DR

*CONN
*I *18:S O *L 0 *C 5.408 8.752
*I *22:A I *L 0.434891 *C 3.888 3.584
*N *26:2 *C 3.888 3.598
*N *26:3 *C 3.888 4.027
*N *26:4 *C 3.901 4.040
*N *26:5 *C 5.394 4.040
*N *26:6 *C 5.408 4.054
*N *26:7 *C 5.408 8.739

*CAP
0 *18:S 0.001
1 *22:A 0.001
2 *26:2 0.01826375
3 *26:3 0.01940728
4 *26:4 0.05219942
5 *26:5 0.05219942
6 *26:6 0.1765377
7 *26:7 0.1753941

*RES
0 *18:S *26:7 1
1 *26:2 *22:A 1
2 *26:3 *26:2 0.7660714
3 *26:4 *26:3 0.5
4 *26:6 *26:5 0.5
5 *26:5 *26:4 2.666071
6 *26:7 *26:6 8.366072

*END

*D_NET *27 0.6190647 //LENGTH 6.452 LUMPCC 0 DR

*CONN
*I *20:SO O *L 0 *C 7.980 8.617
*I *23:A I *L 0.434891 *C 6.928 3.584
*N *27:2 *C 6.928 3.598
*N *27:3 *C 6.928 6.458
*N *27:4 *C 6.942 6.472
*N *27:5 *C 7.827 6.472
*N *27:6 *C 7.840 6.486
*N *27:7 *C 7.840 8.587
*N *27:8 *C 7.853 8.600

*CAP
0 *20:SO 0.01114007
1 *23:A 0.001
2 *27:2 0.1585288
3 *27:3 0.1596723
4 *27:4 0.04235159
5 *27:5 0.04235159
6 *27:6 0.09714477
7 *27:7 0.09732968
8 *27:8 0.009545943

*RES
0 *20:SO *27:8 0.2116667
1 *27:2 *23:A 1
2 *27:3 *27:2 5.108929
3 *27:4 *27:3 0.5
4 *27:6 *27:5 0.5
5 *27:5 *27:4 1.580357
6 *27:8 *27:7 1
7 *27:7 *27:6 3.751786

*END

*D_NET *28 1.222893 //LENGTH 17.366 LUMPCC 0 DR

*CONN
*I *16:Y O *L 0 *C 9.360 3.736
*I *12:RSTB I *L 0.924894 *C 3.280 1.152
*I *13:RSTB I *L 0.924894 *C 2.976 4.496
*I *10:RSTB I *L 0.924894 *C 2.824 7.536
*I *11:RSTB I *L 0.924894 *C 7.536 1.152
*N *28:5 *C 9.360 3.554
*N *28:6 *C 7.536 1.165
*N *28:7 *C 2.824 7.522
*N *28:8 *C 2.824 6.472
*N *28:9 *C 2.976 6.472
*N *28:10 *C 2.976 4.510
*N *28:11 *C 2.976 4.357
*N *28:12 *C 2.990 4.344
*N *28:13 *C 3.267 4.344
*N *28:14 *C 3.280 4.330
*N *28:15 *C 3.280 1.165
*N *28:16 *C 3.280 1.012
*N *28:17 *C 3.294 1.000
*N *28:18 *C 7.536 1.000
*N *28:19 *C 7.536 1.303
*N *28:20 *C 7.537 1.304
*N *28:21 *C 7.840 1.304
*N *28:22 *C 7.840 3.723
*N *28:23 *C 7.854 3.736
*N *28:24 *C 9.347 3.736
*N *28:25 *C 9.360 3.724

*CAP
0 *16:Y 0.001
1 *12:RSTB 0.001
2 *13:RSTB 0.001
3 *10:RSTB 0.001
4 *11:RSTB 0.001
5 *28:5 0.01590738
6 *28:6 0.00596342
7 *28:7 0.03764002
8 *28:8 0.04767377
9 *28:9 0.07866958
10 *28:10 0.07905666
11 *28:11 0.008641802
12 *28:12 0.01216605
13 *28:13 0.01216605
14 *28:14 0.1137441
15 *28:15 0.1210445
16 *28:16 0.006664822
17 *28:17 0.1237176
18 *28:18 0.1354207
19 *28:19 0.008145043
20 *28:20 0.01861913
21 *28:21 0.1417681
22 *28:22 0.1284769
23 *28:23 0.05560084
24 *28:24 0.05560084
25 *28:25 0.01120578

*RES
0 *16:Y *28:25 1
1 *28:22 *28:21 4.31875
2 *28:23 *28:22 0.5
3 *28:25 *28:24 0.5
4 *28:25 *28:5 0.2825
5 *28:24 *28:23 2.666072
6 *28:6 *11:RSTB 1
7 *28:15 *12:RSTB 1
8 *28:15 *28:14 5.651786
9 *28:20 *28:19 0.5
10 *28:20 *28:6 0.2325
11 *28:19 *28:18 0.5410715
12 *28:16 *28:15 0.255
13 *28:17 *28:16 0.5
14 *28:10 *13:RSTB 1
15 *28:10 *28:9 3.504464
16 *28:14 *28:13 0.5
17 *28:13 *28:12 0.4946429
18 *28:11 *28:10 0.255
19 *28:12 *28:11 0.5
20 *28:7 *10:RSTB 1
21 *28:8 *28:7 1.875893
22 *28:9 *28:8 0.2714286
23 *28:21 *28:20 0.5410715
24 *28:18 *28:17 7.575893

*END

*D_NET *29 0.8818539 //LENGTH 9.396 LUMPCC 0 DR

*CONN
*I *17:CO O *L 0 *C 6.016 6.776
*I *15:A I *L 0.604022 *C 6.624 5.104
*I *19:A5 I *L 0.569714 *C 8.144 3.736
*I *18:B I *L 1.946637 *C 7.384 8.296
*N *29:4 *C 7.384 8.283
*N *29:5 *C 7.384 7.688
*N *29:6 *C 7.536 7.688
*N *29:7 *C 7.536 6.182
*N *29:8 *C 7.522 6.168
*N *29:9 *C 8.144 3.750
*N *29:10 *C 8.144 4.330
*N *29:11 *C 8.130 4.344
*N *29:12 *C 6.638 4.344
*N *29:13 *C 6.624 4.357
*N *29:14 *C 6.624 5.104
*N *29:15 *C 6.624 5.560
*N *29:16 *C 6.776 5.560
*N *29:17 *C 6.776 6.155
*N *29:18 *C 6.776 6.168
*N *29:19 *C 6.030 6.168
*N *29:20 *C 6.016 6.182
*N *29:21 *C 6.016 6.763

*CAP
0 *17:CO 0.001
1 *15:A 0.001
2 *19:A5 0.001
3 *18:B 0.001
4 *29:4 0.03415795
5 *29:5 0.04421412
6 *29:6 0.08703324
7 *29:7 0.0781206
8 *29:8 0.0358888
9 *29:9 0.03614384
10 *29:10 0.03728737
11 *29:11 0.06129916
12 *29:12 0.06129916
13 *29:13 0.03600405
14 *29:14 0.05886469
15 *29:15 0.03162475
16 *29:16 0.0520032
17 *29:17 0.04260359
18 *29:18 0.07418062
19 *29:19 0.03651278
20 *29:20 0.03587979
21 *29:21 0.03473625

*RES
0 *17:CO *29:21 1
1 *29:7 *29:6 2.690179
2 *29:8 *29:7 0.5
3 *29:4 *18:B 1
4 *29:17 *29:16 1.061607
5 *29:18 *29:17 0.5
6 *29:18 *29:8 1.333036
7 *29:14 *15:A 1
8 *29:14 *29:13 1.333036
9 *29:13 *29:12 0.5
10 *29:12 *29:11 2.666071
11 *29:10 *29:9 1.0375
12 *29:11 *29:10 0.5
13 *29:9 *19:A5 1
14 *29:20 *29:19 0.5
15 *29:19 *29:18 1.333036
16 *29:21 *29:20 1.0375
17 *29:15 *29:14 0.8142858
18 *29:16 *29:15 0.2714286
19 *29:5 *29:4 1.061607
20 *29:6 *29:5 0.2714286

*END

*D_NET *30 0.3158618 //LENGTH 3.674 LUMPCC 0 DR

*CONN
*I *15:Y O *L 0 *C 6.320 4.952
*I *19:A2 I *L 0.536319 *C 7.536 2.824
*N *30:2 *C 7.536 2.838
*N *30:3 *C 7.536 3.723
*N *30:4 *C 7.522 3.736
*N *30:5 *C 6.333 3.736
*N *30:6 *C 6.320 3.750
*N *30:7 *C 6.320 4.939

*CAP
0 *15:Y 0.001
1 *19:A2 0.001
2 *30:2 0.0549978
3 *30:3 0.05614134
4 *30:4 0.04490215
5 *30:5 0.04490215
6 *30:6 0.05703093
7 *30:7 0.0558874

*RES
0 *15:Y *30:7 1
1 *30:2 *19:A2 1
2 *30:3 *30:2 1.580357
3 *30:4 *30:3 0.5
4 *30:6 *30:5 0.5
5 *30:5 *30:4 2.123214
6 *30:7 *30:6 2.123214

*END

*D_NET *31 0.7850159 //LENGTH 9.094 LUMPCC 0 DR

*CONN
*I *17:S O *L 0 *C 6.308 6.624
*I *19:A1 I *L 0.510932 *C 7.384 3.584
*I *14:A I *L 0.604022 *C 5.712 5.104
*I *18:A I *L 1.976759 *C 6.928 8.904
*N *31:4 *C 6.928 8.891
*N *31:5 *C 6.928 7.397
*N *31:6 *C 6.915 7.384
*N *31:7 *C 6.182 7.384
*N *31:8 *C 6.168 7.371
*N *31:9 *C 5.712 5.091
*N *31:10 *C 5.712 4.648
*N *31:11 *C 7.384 3.598
*N *31:12 *C 7.384 4.635
*N *31:13 *C 7.371 4.648
*N *31:14 *C 6.182 4.648
*N *31:15 *C 6.168 4.662
*N *31:16 *C 6.168 6.624
*N *31:17 *C 6.181 6.624

*CAP
0 *17:S 0.01220001
1 *19:A1 0.001
2 *14:A 0.001
3 *18:A 0.001
4 *31:4 0.05928605
5 *31:5 0.06042959
6 *31:6 0.02626943
7 *31:7 0.02626943
8 *31:8 0.03218199
9 *31:9 0.01988231
10 *31:10 0.04054031
11 *31:11 0.06928165
12 *31:12 0.07042518
13 *31:13 0.05442233
14 *31:14 0.05442233
15 *31:15 0.1146944
16 *31:16 0.1311049
17 *31:17 0.01060588

*RES
0 *17:S *31:17 0.2116667
1 *31:8 *31:7 0.5
2 *31:7 *31:6 1.308929
3 *31:5 *31:4 2.666071
4 *31:6 *31:5 0.5
5 *31:4 *18:A 1
6 *31:17 *31:16 1
7 *31:16 *31:15 3.504465
8 *31:16 *31:8 1.333036
9 *31:15 *31:14 0.5
10 *31:15 *31:10 0.8142858
11 *31:14 *31:13 2.123214
12 *31:12 *31:11 1.851786
13 *31:13 *31:12 0.5
14 *31:11 *19:A1 1
15 *31:9 *14:A 1
16 *31:10 *31:9 0.7901786

*END

*D_NET *32 0.4279708 //LENGTH 5.855 LUMPCC 0 DR

*CONN
*I *19:Y O *L 0 *C 8.904 3.888
*I *20:B0 I *L 1.004534 *C 9.056 8.296
*N *32:2 *C 9.056 8.114
*N *32:3 *C 9.056 8.284
*N *32:4 *C 9.043 8.296
*N *32:5 *C 8.614 8.296
*N *32:6 *C 8.600 8.283
*N *32:7 *C 8.600 4.054
*N *32:8 *C 8.614 4.040
*N *32:9 *C 8.891 4.040
*N *32:10 *C 8.904 4.027
*N *32:11 *C 8.904 3.888

*CAP
0 *19:Y 0.001
1 *20:B0 0.001
2 *32:2 0.009984509
3 *32:3 0.00528291
4 *32:4 0.01464184
5 *32:5 0.01464184
6 *32:6 0.1638174
7 *32:7 0.1638174
8 *32:8 0.01627431
9 *32:9 0.01627431
10 *32:10 0.0111899
11 *32:11 0.01004637

*RES
0 *19:Y *32:11 1
1 *32:3 *20:B0 1
2 *32:3 *32:2 0.2825
3 *32:4 *32:3 0.5
4 *32:6 *32:5 0.5
5 *32:5 *32:4 0.7660714
6 *32:7 *32:6 7.551786
7 *32:8 *32:7 0.5
8 *32:10 *32:9 0.5
9 *32:9 *32:8 0.4946429
10 *32:11 *32:10 0.2325

*END

*D_NET *33 0.8660241 //LENGTH 9.613 LUMPCC 0 DR

*CONN
*I *12:QN O *L 0 *C 5.574 2.204
*I *18:CI I *L 1.474751 *C 7.080 8.296
*I *19:A6 I *L 0.642668 *C 8.296 3.128
*N *33:3 *C 8.296 2.946
*N *33:4 *C 8.296 3.115
*N *33:5 *C 8.283 3.128
*N *33:6 *C 7.081 8.296
*N *33:7 *C 7.232 8.296
*N *33:8 *C 7.232 3.142
*N *33:9 *C 7.232 3.128
*N *33:10 *C 5.726 3.128
*N *33:11 *C 5.712 3.115
*N *33:12 *C 5.712 2.230
*N *33:13 *C 5.700 2.216

*CAP
0 *12:QN 0.01344195
1 *18:CI 0.001
2 *19:A6 0.001
3 *33:3 0.01125349
4 *33:4 0.006551889
5 *33:5 0.0373661
6 *33:6 0.004046175
7 *33:7 0.2836094
8 *33:8 0.2748616
9 *33:9 0.09311567
10 *33:10 0.05397053
11 *33:11 0.03688731
12 *33:12 0.03707222
13 *33:13 0.01184782

*RES
0 *12:QN *33:13 0.21
1 *33:4 *19:A6 1
2 *33:4 *33:3 0.2825
3 *33:5 *33:4 0.5
4 *33:8 *33:7 9.204465
5 *33:9 *33:8 0.5
6 *33:9 *33:5 1.875893
7 *33:6 *18:CI 1
8 *33:11 *33:10 0.5
9 *33:10 *33:9 2.690179
10 *33:13 *33:12 1
11 *33:12 *33:11 1.580357
12 *33:7 *33:6 0.2696429

*END

*D_NET *34 0.4409213 //LENGTH 6.233 LUMPCC 0 DR

*CONN
*I *10:QN O *L 0 *C 5.104 6.472
*I *21:A I *L 0.427737 *C 1.152 8.448
*N *34:2 *C 1.152 8.434
*N *34:3 *C 1.152 7.397
*N *34:4 *C 1.165 7.384
*N *34:5 *C 5.091 7.384
*N *34:6 *C 5.104 7.371
*N *34:7 *C 5.104 6.473

*CAP
0 *10:QN 0.001
1 *21:A 0.001
2 *34:2 0.04817193
3 *34:3 0.04931546
4 *34:4 0.1272397
5 *34:5 0.1272397
6 *34:6 0.04404906
7 *34:7 0.04290553

*RES
0 *10:QN *34:7 1
1 *34:2 *21:A 1
2 *34:3 *34:2 1.851786
3 *34:4 *34:3 0.5
4 *34:6 *34:5 0.5
5 *34:5 *34:4 7.008929
6 *34:7 *34:6 1.602679

*END

*D_NET *35 0.3378961 //LENGTH 5.174 LUMPCC 0 DR

*CONN
*I *21:Y O *L 0 *C 4.800 8.296
*I *10:D I *L 0.557097 *C 1.304 7.080
*N *35:2 *C 4.800 8.114
*N *35:3 *C 1.304 7.094
*N *35:4 *C 1.304 8.283
*N *35:5 *C 1.318 8.296
*N *35:6 *C 4.787 8.296
*N *35:7 *C 4.800 8.284

*CAP
0 *21:Y 0.001
1 *10:D 0.001
2 *35:2 0.009906942
3 *35:3 0.05235583
4 *35:4 0.05349936
5 *35:5 0.1074643
6 *35:6 0.1074643
7 *35:7 0.005205343

*RES
0 *21:Y *35:7 1
1 *35:3 *10:D 1
2 *35:4 *35:3 2.123214
3 *35:5 *35:4 0.5
4 *35:7 *35:6 0.5
5 *35:7 *35:2 0.2825
6 *35:6 *35:5 6.194643

*END

*D_NET *36 0.2168425 //LENGTH 2.902 LUMPCC 0 DR

*CONN
*I *22:Y O *L 0 *C 1.152 3.736
*I *12:D I *L 0.557097 *C 1.730 1.608
*N *36:2 *C 1.319 1.608
*N *36:3 *C 1.303 1.608
*N *36:4 *C 1.152 1.608
*N *36:5 *C 1.152 3.723

*CAP
0 *22:Y 0.001
1 *12:D 0.0251495
2 *36:2 0.02355537
3 *36:3 0.005435185
4 *36:4 0.08582716
5 *36:5 0.07587529

*RES
0 *22:Y *36:5 1
1 *36:2 *12:D 0.8220001
2 *36:3 *36:2 1
3 *36:5 *36:4 3.775893
4 *36:4 *36:3 0.2696429

*END

*D_NET *37 0.2925773 //LENGTH 4.414 LUMPCC 0 DR

*CONN
*I *23:Y O *L 0 *C 4.192 3.736
*I *13:D I *L 0.557097 *C 1.456 4.952
*N *37:2 *C 4.192 3.554
*N *37:3 *C 1.456 4.939
*N *37:4 *C 1.456 3.750
*N *37:5 *C 1.470 3.736
*N *37:6 *C 4.179 3.736
*N *37:7 *C 4.192 3.724

*CAP
0 *23:Y 0.001
1 *13:D 0.001
2 *37:2 0.01109918
3 *37:3 0.04509753
4 *37:4 0.04624107
5 *37:5 0.09087095
6 *37:6 0.09087095
7 *37:7 0.006397583

*RES
0 *23:Y *37:7 1
1 *37:3 *13:D 1
2 *37:4 *37:3 2.123214
3 *37:5 *37:4 0.5
4 *37:7 *37:6 0.5
5 *37:7 *37:2 0.2825
6 *37:6 *37:5 4.837501

*END

*D_NET *38 0.4825798 //LENGTH 4.870 LUMPCC 0 DR

*CONN
*I *24:Y O *L 0 *C 7.080 4.952
*I *11:D I *L 0.557097 *C 6.016 1.608
*N *38:2 *C 6.016 1.426
*N *38:3 *C 6.016 1.596
*N *38:4 *C 6.030 1.608
*N *38:5 *C 7.067 1.608
*N *38:6 *C 7.080 1.622
*N *38:7 *C 7.080 4.939

*CAP
0 *24:Y 0.001
1 *11:D 0.001
2 *38:2 0.01015914
3 *38:3 0.005457541
4 *38:4 0.04543529
5 *38:5 0.04543529
6 *38:6 0.187618
7 *38:7 0.1864745

*RES
0 *24:Y *38:7 1
1 *38:3 *11:D 1
2 *38:3 *38:2 0.2825
3 *38:4 *38:3 0.5
4 *38:6 *38:5 0.5
5 *38:5 *38:4 1.851786
6 *38:7 *38:6 5.923215

*END

